 vasp.6.3.1 04May22 (build Jun 07 2022 20:23:04) complex

 executed on             LinuxIFC date 2024.03.28  16:47:56

 INCAR:
   ALGO = Normal
   EDIFF = 1e-05
   EMAX = 20
   EMIN = -20.01
   ENCUT = 400.0
   IBRION = 2
   ISIF = 0
   ISMEAR = 0
   KPAR = 1
   LAECHG = True
   LASPH = True
   LCHARG = False
   LORBIT = 11
   LREAL = False
   LVTOT = True
   LWAVE = False
   NBANDS = 34
   NEDOS = 4002
   NELM = 100
   NSW = 1
   PREC = Normal
   SIGMA = 0.1

 POTCAR:    PAW_PBE Ga_d 06Jul2010
 POTCAR:    PAW_PBE N 08Apr2002
 WARNING: For LVTOT=.TRUE., VASP.5.x writes the TOTAL local potential to the
     file LOCPOT. If you want only the Hartree contributions, use LVHAR=.TRUE.
     instead.

   TITEL  = PAW_PBE Ga_d 06Jul2010
   POMASS =   69.723; ZVAL   =   13.000    mass and valenz
   ENMAX  =  282.691; ENMIN  =  212.018 eV

   TITEL  = PAW_PBE N 08Apr2002
   POMASS =   14.001; ZVAL   =    5.000    mass and valenz
   ENMAX  =  400.000; ENMIN  =  300.000 eV

  PAW_PBE Ga_d 06Jul2010                :
  PAW_PBE N 08Apr2002                   :

 POSCAR: Ga2 N2
  positions in direct lattice
 exchange correlation table for  LEXCH =        8
   RHO(1)=    0.500       N(1)  =     2000
   RHO(2)=  100.500       N(2)  =     4000

 VTST: version 4.2, (08/11/21)

 CHAIN: initializing optimizer

 OPT: Using VASP Conjugate-Gradient optimizer
 CHAIN: Read ICHAIN            0

 POSCAR: Ga2 N2
  positions in direct lattice

 ion  position               nearest neighbor table
   1  0.333  0.667  0.999-   4 1.95   4 1.95   4 1.95   3 1.96
   2  0.667  0.333  0.499-   3 1.95   3 1.95   3 1.95   4 1.96
   3  0.333  0.667  0.376-   2 1.95   2 1.95   2 1.95   1 1.96
   4  0.667  0.333  0.876-   1 1.95   1 1.95   1 1.95   2 1.96

  LATTYP: Found a hexagonal cell.
 ALAT       =     3.1969218337
 C/A-ratio  =     1.6281816284

  Lattice vectors:

 A1 = (   3.1969218337,   0.0000000000,   0.0000000000)
 A2 = (  -1.5984609169,   2.7686155219,   0.0000000000)
 A3 = (   0.0000000000,   0.0000000000,   5.2051693970)

Analysis of symmetry for initial positions (statically):
 Subroutine PRICEL returns:
 Original cell was already a primitive cell.

 Routine SETGRP: Setting up the symmetry group for a
 hexagonal supercell.

 Subroutine GETGRP returns: Found 12 space group operations
 (whereof  6 operations were pure point group operations)
 out of a pool of 24 trial point group operations.

The static configuration has the point symmetry C_3v.
 The point group associated with its full space group is C_6v.

Analysis of symmetry for dynamics (positions and initial velocities):
 Subroutine PRICEL returns:
 Original cell was already a primitive cell.

 Routine SETGRP: Setting up the symmetry group for a
 hexagonal supercell.

 Subroutine GETGRP returns: Found 12 space group operations
 (whereof  6 operations were pure point group operations)
 out of a pool of 24 trial point group operations.

The dynamic configuration has the point symmetry C_3v.
 The point group associated with its full space group is C_6v.

 Subroutine INISYM returns: Found 12 space group operations
 (whereof  6 operations are pure point group operations),
 and found     1 'primitive' translations

                                     Primitive cell

  volume of cell :      46.0712

  direct lattice vectors                    reciprocal lattice vectors
     3.196921834  0.000000000  0.000000000     0.312800892  0.180595679  0.000000000
    -1.598460917  2.768615522  0.000000000     0.000000000  0.361191358  0.000000000
     0.000000000  0.000000000  5.205169397     0.000000000  0.000000000  0.192116706

  length of vectors
     3.196921834  3.196921834  5.205169397     0.361191358  0.361191358  0.192116706

  position of ions in fractional coordinates (direct lattice)
     0.333333333  0.666666667  0.999137235
     0.666666667  0.333333333  0.499137235
     0.333333333  0.666666667  0.375862765
     0.666666667  0.333333333  0.875862765

  ion indices of the primitive-cell ions
   primitive index   ion index
                 1           1
                 2           2
                 3           3
                 4           4

 KPOINTS: Num irrep kpoints: 488

Automatic generation of k-mesh.
 Grid dimensions read from file:
 generate k-points for:   24   24   14

 Generating k-lattice:

  Cartesian coordinates                     Fractional coordinates (reciprocal lattice)
     0.013033370  0.007524820  0.000000000     0.041666667  0.000000000  0.000000000
     0.000000000  0.015049640  0.000000000     0.000000000  0.041666667  0.000000000
     0.000000000  0.000000000  0.013722622     0.000000000  0.000000000  0.071428571

  Length of vectors
     0.015049640  0.015049640  0.013722622

  Shift w.r.t. Gamma in fractional coordinates (k-lattice)
     0.000000000  0.000000000  0.000000000

 Subroutine IBZKPT returns following result:

 Found    488 irreducible k-points:

 Following reciprocal coordinates:
            Coordinates               Weight
  0.000000  0.000000  0.000000      1.000000
  0.041667  0.000000  0.000000      6.000000
  0.083333  0.000000  0.000000      6.000000
  0.125000  0.000000  0.000000      6.000000
  0.166667  0.000000  0.000000      6.000000
  0.208333 -0.000000  0.000000      6.000000
  0.250000  0.000000  0.000000      6.000000
  0.291667  0.000000  0.000000      6.000000
  0.333333  0.000000  0.000000      6.000000
  0.375000  0.000000  0.000000      6.000000
  0.416667  0.000000  0.000000      6.000000
  0.458333  0.000000  0.000000      6.000000
  0.500000  0.000000  0.000000      3.000000
  0.041667  0.041667  0.000000      6.000000
  0.083333  0.041667  0.000000     12.000000
  0.125000  0.041667  0.000000     12.000000
  0.166667  0.041667  0.000000     12.000000
  0.208333  0.041667  0.000000     12.000000
  0.250000  0.041667  0.000000     12.000000
  0.291667  0.041667  0.000000     12.000000
  0.333333  0.041667  0.000000     12.000000
  0.375000  0.041667  0.000000     12.000000
  0.416667  0.041667  0.000000     12.000000
  0.458333  0.041667  0.000000     12.000000
  0.083333  0.083333  0.000000      6.000000
  0.125000  0.083333  0.000000     12.000000
  0.166667  0.083333  0.000000     12.000000
  0.208333  0.083333  0.000000     12.000000
  0.250000  0.083333  0.000000     12.000000
  0.291667  0.083333  0.000000     12.000000
  0.333333  0.083333  0.000000     12.000000
  0.375000  0.083333  0.000000     12.000000
  0.416667  0.083333  0.000000     12.000000
  0.458333  0.083333  0.000000      6.000000
  0.125000  0.125000  0.000000      6.000000
  0.166667  0.125000  0.000000     12.000000
  0.208333  0.125000  0.000000     12.000000
  0.250000  0.125000  0.000000     12.000000
  0.291667  0.125000  0.000000     12.000000
  0.333333  0.125000  0.000000     12.000000
  0.375000  0.125000  0.000000     12.000000
  0.416667  0.125000  0.000000     12.000000
  0.166667  0.166667  0.000000      6.000000
  0.208333  0.166667  0.000000     12.000000
  0.250000  0.166667  0.000000     12.000000
  0.291667  0.166667  0.000000     12.000000
  0.333333  0.166667  0.000000     12.000000
  0.375000  0.166667  0.000000     12.000000
  0.416667  0.166667  0.000000      6.000000
  0.208333  0.208333  0.000000      6.000000
  0.250000  0.208333  0.000000     12.000000
  0.291667  0.208333  0.000000     12.000000
  0.333333  0.208333  0.000000     12.000000
  0.375000  0.208333  0.000000     12.000000
  0.250000  0.250000  0.000000      6.000000
  0.291667  0.250000  0.000000     12.000000
  0.333333  0.250000  0.000000     12.000000
  0.375000  0.250000  0.000000      6.000000
  0.291667  0.291667  0.000000      6.000000
  0.333333  0.291667  0.000000     12.000000
[...]
  0.333333  0.166667  0.500000     12.000000
  0.375000  0.166667  0.500000     12.000000
  0.416667  0.166667  0.500000      6.000000
  0.208333  0.208333  0.500000      6.000000
  0.250000  0.208333  0.500000     12.000000
  0.291667  0.208333  0.500000     12.000000
  0.333333  0.208333  0.500000     12.000000
  0.375000  0.208333  0.500000     12.000000
  0.250000  0.250000  0.500000      6.000000
  0.291667  0.250000  0.500000     12.000000
  0.333333  0.250000  0.500000     12.000000
  0.375000  0.250000  0.500000      6.000000
  0.291667  0.291667  0.500000      6.000000
  0.333333  0.291667  0.500000     12.000000
  0.333333  0.333333  0.500000      2.000000

 Following cartesian coordinates:
            Coordinates               Weight
  0.000000  0.000000  0.000000      1.000000
  0.013033  0.007525  0.000000      6.000000
  0.026067  0.015050  0.000000      6.000000
  0.039100  0.022574  0.000000      6.000000
  0.052133  0.030099  0.000000      6.000000
  0.065167  0.037624  0.000000      6.000000
  0.078200  0.045149  0.000000      6.000000
  0.091234  0.052674  0.000000      6.000000
  0.104267  0.060199  0.000000      6.000000
  0.117300  0.067723  0.000000      6.000000
  0.130334  0.075248  0.000000      6.000000
  0.143367  0.082773  0.000000      6.000000
  0.156400  0.090298  0.000000      3.000000
  0.013033  0.022574  0.000000      6.000000
  0.026067  0.030099  0.000000     12.000000
  0.039100  0.037624  0.000000     12.000000
  0.052133  0.045149  0.000000     12.000000
  0.065167  0.052674  0.000000     12.000000
  0.078200  0.060199  0.000000     12.000000
  0.091234  0.067723  0.000000     12.000000
  0.104267  0.075248  0.000000     12.000000
  0.117300  0.082773  0.000000     12.000000
  0.130334  0.090298  0.000000     12.000000
  0.143367  0.097823  0.000000     12.000000
  0.026067  0.045149  0.000000      6.000000
  0.039100  0.052674  0.000000     12.000000
  0.052133  0.060199  0.000000     12.000000
  0.065167  0.067723  0.000000     12.000000
  0.078200  0.075248  0.000000     12.000000
  0.091234  0.082773  0.000000     12.000000
  0.104267  0.090298  0.000000     12.000000
  0.117300  0.097823  0.000000     12.000000
  0.130334  0.105347  0.000000     12.000000
  0.143367  0.112872  0.000000      6.000000
  0.039100  0.067723  0.000000      6.000000
  0.052133  0.075248  0.000000     12.000000
  0.065167  0.082773  0.000000     12.000000
  0.078200  0.090298  0.000000     12.000000
  0.091234  0.097823  0.000000     12.000000
  0.104267  0.105347  0.000000     12.000000
  0.117300  0.112872  0.000000     12.000000
  0.130334  0.120397  0.000000     12.000000
  0.052133  0.090298  0.000000      6.000000
  0.065167  0.097823  0.000000     12.000000
  0.078200  0.105347  0.000000     12.000000
  0.091234  0.112872  0.000000     12.000000
  0.104267  0.120397  0.000000     12.000000
  0.117300  0.127922  0.000000     12.000000
  0.130334  0.135447  0.000000      6.000000
  0.065167  0.112872  0.000000      6.000000
  0.078200  0.120397  0.000000     12.000000
  0.091234  0.127922  0.000000     12.000000
  0.104267  0.135447  0.000000     12.000000
  0.117300  0.142972  0.000000     12.000000
  0.078200  0.135447  0.000000      6.000000
  0.091234  0.142972  0.000000     12.000000
  0.104267  0.150496  0.000000     12.000000
  0.117300  0.158021  0.000000      6.000000
  0.091234  0.158021  0.000000      6.000000
  0.104267  0.165546  0.000000     12.000000
[...]
  0.104267  0.120397  0.096058     12.000000
[...]

 position of ions in fractional coordinates (direct lattice)
   0.33333333  0.66666667  0.99913723
   0.66666667  0.33333333  0.49913723
   0.33333333  0.66666667  0.37586277
   0.66666667  0.33333333  0.87586277

 position of ions in cartesian coordinates  (Angst):
  -0.00000000  1.84574368  5.20067856
   1.59846092  0.92287184  2.59809386
  -0.00000000  1.84574368  1.95642936
   1.59846092  0.92287184  4.55901406

 k-point   1 :   0.0000 0.0000 0.0000  plane waves:     833
 k-point   2 :   0.0417 0.0000 0.0000  plane waves:     831
 k-point   3 :   0.0833 0.0000 0.0000  plane waves:     825
 k-point   4 :   0.1250 0.0000 0.0000  plane waves:     839
 k-point   5 :   0.1667 0.0000 0.0000  plane waves:     835
 k-point   6 :   0.2083-0.0000 0.0000  plane waves:     837
 k-point   7 :   0.2500 0.0000 0.0000  plane waves:     829
 k-point   8 :   0.2917 0.0000 0.0000  plane waves:     833
 k-point   9 :   0.3333 0.0000 0.0000  plane waves:     841
 k-point  10 :   0.3750 0.0000 0.0000  plane waves:     847
 k-point  11 :   0.4167 0.0000 0.0000  plane waves:     841
 k-point  12 :   0.4583 0.0000 0.0000  plane waves:     847
 k-point  13 :   0.5000 0.0000 0.0000  plane waves:     852
 k-point  14 :   0.0417 0.0417 0.0000  plane waves:     819
 k-point  15 :   0.0833 0.0417 0.0000  plane waves:     828
 k-point  16 :   0.1250 0.0417 0.0000  plane waves:     835
 k-point  17 :   0.1667 0.0417 0.0000  plane waves:     833
 k-point  18 :   0.2083 0.0417 0.0000  plane waves:     836
 k-point  19 :   0.2500 0.0417 0.0000  plane waves:     836
 k-point  20 :   0.2917 0.0417 0.0000  plane waves:     838
 k-point  21 :   0.3333 0.0417 0.0000  plane waves:     845
 k-point  22 :   0.3750 0.0417 0.0000  plane waves:     841
 k-point  23 :   0.4167 0.0417 0.0000  plane waves:     845
 k-point  24 :   0.4583 0.0417 0.0000  plane waves:     847
 k-point  25 :   0.0833 0.0833 0.0000  plane waves:     837
 k-point  26 :   0.1250 0.0833 0.0000  plane waves:     831
 k-point  27 :   0.1667 0.0833 0.0000  plane waves:     833
 k-point  28 :   0.2083 0.0833 0.0000  plane waves:     838
 k-point  29 :   0.2500 0.0833 0.0000  plane waves:     838
 k-point  30 :   0.2917 0.0833 0.0000  plane waves:     838
 k-point  31 :   0.3333 0.0833 0.0000  plane waves:     838
 k-point  32 :   0.3750 0.0833 0.0000  plane waves:     842
 k-point  33 :   0.4167 0.0833 0.0000  plane waves:     848
 k-point  34 :   0.4583 0.0833 0.0000  plane waves:     852
 k-point  35 :   0.1250 0.1250 0.0000  plane waves:     829
 k-point  36 :   0.1667 0.1250 0.0000  plane waves:     826
 k-point  37 :   0.2083 0.1250 0.0000  plane waves:     832
 k-point  38 :   0.2500 0.1250 0.0000  plane waves:     836
 k-point  39 :   0.2917 0.1250 0.0000  plane waves:     841
 k-point  40 :   0.3333 0.1250 0.0000  plane waves:     847
 k-point  41 :   0.3750 0.1250 0.0000  plane waves:     845
 k-point  42 :   0.4167 0.1250 0.0000  plane waves:     853
 k-point  43 :   0.1667 0.1667 0.0000  plane waves:     831
 k-point  44 :   0.2083 0.1667 0.0000  plane waves:     831
 k-point  45 :   0.2500 0.1667 0.0000  plane waves:     833
 k-point  46 :   0.2917 0.1667 0.0000  plane waves:     841
 k-point  47 :   0.3333 0.1667 0.0000  plane waves:     845
 k-point  48 :   0.3750 0.1667 0.0000  plane waves:     849
 k-point  49 :   0.4167 0.1667 0.0000  plane waves:     856
 k-point  50 :   0.2083 0.2083 0.0000  plane waves:     827
 k-point  51 :   0.2500 0.2083 0.0000  plane waves:     831
 k-point  52 :   0.2917 0.2083 0.0000  plane waves:     837
 k-point  53 :   0.3333 0.2083 0.0000  plane waves:     843
 k-point  54 :   0.3750 0.2083 0.0000  plane waves:     845
 k-point  55 :   0.2500 0.2500 0.0000  plane waves:     841
 k-point  56 :   0.2917 0.2500 0.0000  plane waves:     838
 k-point  57 :   0.3333 0.2500 0.0000  plane waves:     840
 k-point  58 :   0.3750 0.2500 0.0000  plane waves:     841
 k-point  59 :   0.2917 0.2917 0.0000  plane waves:     839
 k-point  60 :   0.3333 0.2917 0.0000  plane waves:     836
[...]
 k-point 474 :   0.3333 0.1667 0.5000  plane waves:     832
 k-point 475 :   0.3750 0.1667 0.5000  plane waves:     828
 k-point 476 :   0.4167 0.1667 0.5000  plane waves:     824
 k-point 477 :   0.2083 0.2083 0.5000  plane waves:     830
 k-point 478 :   0.2500 0.2083 0.5000  plane waves:     828
 k-point 479 :   0.2917 0.2083 0.5000  plane waves:     830
 k-point 480 :   0.3333 0.2083 0.5000  plane waves:     826
 k-point 481 :   0.3750 0.2083 0.5000  plane waves:     824
 k-point 482 :   0.2500 0.2500 0.5000  plane waves:     826
 k-point 483 :   0.2917 0.2500 0.5000  plane waves:     830
 k-point 484 :   0.3333 0.2500 0.5000  plane waves:     828
 k-point 485 :   0.3750 0.2500 0.5000  plane waves:     822
 k-point 486 :   0.2917 0.2917 0.5000  plane waves:     826
 k-point 487 :   0.3333 0.2917 0.5000  plane waves:     830
 k-point 488 :   0.3333 0.3333 0.5000  plane waves:     828

 maximum and minimum number of plane-waves per node :       856      819

 maximum number of plane-waves:       856
 maximum index in each direction:
   IXMAX=    5   IYMAX=    5   IZMAX=    8
   IXMIN=   -5   IYMIN=   -5   IZMIN=   -8

 serial   3D FFT for wavefunctions
 parallel 3D FFT for charge:
    minimum data exchange during FFTs selected (reduces bandwidth)

 Broyden mixing: mesh for mixing (old mesh)
   NGX = 11   NGY = 11   NGZ = 17
  (NGX  = 32   NGY  = 32   NGZ  = 56)
  gives a total of   2057 points

 initial charge density was supplied:
 charge density of overlapping atoms calculated
 number of electron      36.0000000 magnetization
 keeping initial charge density in first step

 Maximum index for augmentation-charges           70 (set IRDMAX)

 First call to EWALD:  gamma=   0.494
 Maximum number of real-space cells 3x 3x 2
 Maximum number of reciprocal cells 3x 3x 4

--------------------------------------- Iteration      1(   1)  ---------------------------------------

 eigenvalue-minimisations  : 65920
 total energy-change (2. order) : 0.1309874E+03  (-0.1429529E+04)
 number of electron      36.0000000 magnetization
 augmentation part       36.0000000 magnetization

 Free energy of the ion-electron system (eV)
  alpha Z        PSCENC =       196.01275012
  Ewald energy   TEWEN  =     -3164.64982264
  -Hartree energ DENC   =     -1160.63656742
  -exchange      EXHF   =         0.00000000
  -V(xc)+E(xc)   XCENC  =       128.72756563
  PAW double counting   =      3616.17691320    -4285.66495278
  entropy T*S    EENTRO =        -0.00043109
  eigenvalues    EBANDS =       -25.56735004
  atomic energy  EATOM  =      4826.58925392
  Solvation  Ediel_sol  =         0.00000000
  free energy    TOTEN  =       130.98735891 eV

  energy without entropy =      130.98779000  energy(sigma->0) =      130.98757446

[...]

 eigenvalue-minimisations  : 78112
 total energy-change (2. order) :-0.1536237E+03  (-0.1476336E+03)
 number of electron      36.0000000 magnetization
 augmentation part       36.0000000 magnetization

[...]

 Broyden mixing:
  rms(total) = 0.10824E+01    rms(broyden)= 0.10822E+01
  rms(prec ) = 0.23216E+01
  weight for this iteration     100.00

[...]

 eigenvalues of (default mixing * dielectric matrix)
  average eigenvalue GAMMA=   0.8610
  0.8610

[...]

 eigenvalue-minimisations  : 66208
 total energy-change (2. order) : 0.2051693E-04  (-0.7677633E-05)
 number of electron      36.0000018 magnetization
 augmentation part       17.3962374 magnetization

 Broyden mixing:
  rms(total) = 0.13212E-02    rms(broyden)= 0.13034E-02
  rms(prec ) = 0.18465E-02
  weight for this iteration     100.00

 eigenvalues of (default mixing * dielectric matrix)
  average eigenvalue GAMMA=   1.7407
  2.8579  2.6251  1.7307  0.9780  0.9780  1.2748

[...]

--------------------------------------- Iteration      1(  12)  ---------------------------------------

 eigenvalue-minimisations  : 90176
 total energy-change (2. order) :-0.6277518E-05  (-0.7658258E-06)
 number of electron      36.0000018 magnetization
 augmentation part       17.3962374 magnetization

 Free energy of the ion-electron system (eV)
  alpha Z        PSCENC =       196.01275012
  Ewald energy   TEWEN  =     -3164.64982264
  -Hartree energ DENC   =     -1165.57409079
  -exchange      EXHF   =         0.00000000
  -V(xc)+E(xc)   XCENC  =       129.95307622
  PAW double counting   =      4472.38709110    -5149.62645689
  entropy T*S    EENTRO =        -0.00000000
  eigenvalues    EBANDS =      -169.41154138
  atomic energy  EATOM  =      4826.58925392
  Solvation  Ediel_sol  =         0.00000000
  free energy    TOTEN  =       -24.31974035 eV

  energy without entropy =      -24.31974035  energy(sigma->0) =      -24.31974035

 average (electrostatic) potential at core
  the test charge radii are     1.0314  0.7089
  (the norm of the test charge is              1.0000)
       1 -63.5768       2 -63.5768       3 -62.1464       4 -62.1464

 E-fermi :   5.6100     XC(G=0): -11.6259     alpha+bet :-13.2930

 Fermi energy:         5.6100000000

 k-point     1 :       0.0000    0.0000    0.0000
  band No.  band energies     occupation
      1     -10.6865      2.00000
      2      -9.7904      2.00000
      3      -8.1994      2.00000
      4      -8.1843      2.00000
      5      -8.1843      2.00000
      6      -8.1245      2.00000
      7      -8.1245      2.00000
      8      -7.9376      2.00000
      9      -7.9376      2.00000
     10      -7.8421      2.00000
     11      -7.8421      2.00000
     12      -6.6135      2.00000
     13      -1.7677      2.00000
     14       4.2072      2.00000
     15       4.2077      2.00000
     16       5.2021      2.00000
     17       5.2342      2.00000
     18       5.2347      2.00000
     19       7.0789      0.00000
     20       9.4214      0.00000
     21      14.3929      0.00000
     22      15.0726      0.00000
     23      15.0726      0.00000
     24      15.8995      0.00000
     25      16.8730      0.00000
     26      16.8732      0.00000
     27      19.7895      0.00000
     28      20.8931      0.00000
     29      20.8932      0.00000
     30      23.1172      0.00000
     31      23.1173      0.00000
     32      23.3366      0.00000
     33      23.3461      0.00000
     34      26.8000      0.00000
     35      29.5714      0.00000
     36      29.5720      0.00000
     37      31.7998      0.00000
     38      33.5438      0.00000
     39      33.5444      0.00000
     40      33.9281      0.00000
     41      33.9281      0.00000
     42      34.3039      0.00000
     43      37.8919      0.00000
     44      37.8919      0.00000
     45      39.5572      0.00000
     46      41.5803      0.00000
     47      41.5809      0.00000
     48      43.2704      0.00000
     49      44.4699      0.00000
     50      44.4707      0.00000
     51      47.3855      0.00000
     52      47.8995      0.00000
     53      50.2349      0.00000
     54      52.9200      0.00000
     55      53.0573      0.00000
     56      53.0575      0.00000
     57      55.1346      0.00000
     58      55.1625      0.00000
     59      55.1627      0.00000
     60      55.7648      0.00000
     61      55.7649      0.00000
     62      56.3656      0.00000
     63      60.2889      0.00000
     64      60.3796      0.00000

[...]

 k-point   488 :       0.3333    0.3333    0.5000
  band No.  band energies     occupation
      1      -9.6228      2.00000
      2      -9.6228      2.00000
      3      -8.0670      2.00000
      4      -8.0670      2.00000
      5      -8.0518      2.00000
      6      -8.0518      2.00000
      7      -7.9173      2.00000
      8      -7.9173      2.00000
      9      -7.8942      2.00000
     10      -7.8942      2.00000
     11      -6.1788      2.00000
     12      -6.1788      2.00000
     13      -0.8926      2.00000
     14      -0.8926      2.00000
     15       1.0863      2.00000
     16       1.0863      2.00000
     17       3.7750      2.00000
     18       3.7750      2.00000
     19      11.5890      0.00000
     20      11.5890      0.00000
     21      12.5468      0.00000
     22      12.5468      0.00000
     23      14.2154      0.00000
     24      14.2154      0.00000
     25      19.1952      0.00000
     26      19.1952      0.00000
     27      19.2789      0.00000
     28      19.2789      0.00000
     29      23.1950      0.00000
     30      23.1950      0.00000
     31      27.5454      0.00000
     32      27.5454      0.00000
     33      30.1422      0.00000
     34      30.1422      0.00000
     35      32.0031      0.00000
     36      32.0031      0.00000
     37      34.4273      0.00000
     38      34.4273      0.00000
     39      35.1047      0.00000
     40      35.1047      0.00000
     41      37.4884      0.00000
     42      37.4884      0.00000
     43      38.6495      0.00000
     44      38.6496      0.00000
     45      40.2087      0.00000
     46      40.2087      0.00000
     47      43.0615      0.00000
     48      43.0615      0.00000
     49      43.7488      0.00000
     50      43.7488      0.00000
     51      44.1781      0.00000
     52      44.1782      0.00000
     53      45.9064      0.00000
     54      45.9064      0.00000
     55      48.4407      0.00000
     56      48.4407      0.00000
     57      49.7943      0.00000
     58      49.7943      0.00000
     59      51.9444      0.00000
     60      51.9444      0.00000
     61      52.7251      0.00000
     62      52.7252      0.00000
     63      53.3441      0.00000
     64      53.3441      0.00000

 soft charge-density along one line, spin component           1
         0         1         2         3         4         5         6         7         8         9
 total charge-density along one line

------------------------ aborting loop because EDIFF is reached ----------------------------------------

 total charge

# of ion       s       p       d       tot
    1        0.786   0.888  10.175  11.849
    2        0.786   0.888  10.175  11.849
    3        1.238   2.467   0.000   3.705
    4        1.238   2.467   0.000   3.705
tot          4.047   6.710  20.350  31.107

 VOLUME and BASIS-vectors are now :
  energy-cutoff  :      400.00
  volume of cell :       46.07
      direct lattice vectors                 reciprocal lattice vectors
     3.196921834  0.000000000  0.000000000     0.312800892  0.180595679  0.000000000
    -1.598460917  2.768615522  0.000000000     0.000000000  0.361191358  0.000000000
     0.000000000  0.000000000  5.205169397     0.000000000  0.000000000  0.192116706

  length of vectors
     3.196921834  3.196921834  5.205169397     0.361191358  0.361191358  0.192116706

 FORCES acting on ions
    electron-ion (+dipol)            ewald-force                    non-local-force                 convergence-correction
   -.822E-04 -.746E-04 -.374E+01   0.916E-07 -.475E-07 0.372E+01   0.201E-16 -.973E-17 0.137E-01   -.419E-08 -.163E-08 0.655E-03
   -.235E-04 -.109E-03 -.374E+01   -.916E-07 0.475E-07 0.372E+01   -.182E-16 -.128E-16 0.137E-01   0.692E-09 -.444E-08 0.655E-03
   -.278E-04 0.240E-04 0.349E+01   0.819E-07 -.428E-07 -.372E+01   0.692E-17 0.359E-17 0.241E+00   -.106E-07 0.613E-08 0.328E-05
   0.345E-04 -.120E-04 0.349E+01   -.819E-07 0.428E-07 -.372E+01   0.109E-16 -.330E-17 0.241E+00   0.106E-07 -.608E-08 0.328E-05
   -.990E-04 -.171E-03 -.504E+00   -.867E-14 0.193E-14 0.178E-14   0.197E-16 -.222E-16 0.509E+00   -.346E-08 -.602E-08 0.132E-02

 POSITION                                       TOTAL-FORCE (eV/Angst)
     -0.00000      1.84574      5.20068        -0.000000      0.000000     -0.000486
      1.59846      0.92287      2.59809        -0.000000      0.000000     -0.000486
     -0.00000      1.84574      1.95643        -0.000000     -0.000000      0.000486
      1.59846      0.92287      4.55901         0.000000     -0.000000      0.000486
    total drift:                               -0.000099     -0.000171      0.005723

  FREE ENERGIE OF THE ION-ELECTRON SYSTEM (eV)
  free  energy   TOTEN  =       -24.31974035 eV

  energy  without entropy=      -24.31974035  energy(sigma->0) =      -24.31974035

 stress matrix after NEB project (eV)
      0.00000      0.00000      0.00000
      0.00000      0.00000      0.00000
      0.00000      0.00000      0.00000
  FORCES: max atom, RMS     0.000486    0.000486
  FORCE total and by dimension    0.000973    0.000486
  Stress total and by dimension    0.000000    0.000000

 reached required accuracy - stopping structural energy minimisation

 total charge

# of ion       s       p       d       tot
    1        0.786   0.888  10.175  11.849
    2        0.786   0.888  10.175  11.849
    3        1.238   2.467   0.000   3.705
    4        1.238   2.467   0.000   3.705
tot          4.047   6.710  20.350  31.107