 vasp.6.3.1 04May22 (build Jun 07 2022 20:23:04) complex

 executed on             LinuxIFC date 2024.04.20  16:34:20

 INCAR:
   ALGO = Normal
   PREC = Normal
   LREAL = False
   EDIFF = 1e-07
   ENCUT = 400.0
   LASPH = True
   NELM = 100
   ISIF = 3
   IBRION = 2
   EDIFFG = -0.005
   NSW = 20
   ISMEAR = -5
   SIGMA = 0.1
   LWAVE = False
   LCHARG = False
   LORBIT = 10
   KPAR = 4

 POTCAR:    PAW_PBE Ga_d 06Jul2010
 POTCAR:    PAW_PBE N 08Apr2002
|           W    W    AA    RRRRR   N    N  II  N    N   GGGG   !!!           |
|           W    W   A  A   R    R  NN   N  II  NN   N  G    G  !!!           |
|           W    W  A    A  R    R  N N  N  II  N N  N  G       !!!           |
|           W WW W  AAAAAA  RRRRR   N  N N  II  N  N N  G  GGG   !            |
|           WW  WW  A    A  R   R   N   NN  II  N   NN  G    G                |
|           W    W  A    A  R    R  N    N  II  N    N   GGGG   !!!           |
|     For optimal performance we recommend to set                             |
|       NCORE = 2 up to number-of-cores-per-socket                            |
|     This setting can greatly improve the performance of VASP for DFT.       |
|     The default, NCORE=1 might be grossly inefficient on modern             |
|     multi-core architectures or massively parallel machines. Do your        |
|     Unfortunately you need to use the default for GW and RPA                |
|     calculations (for HF NCORE is supported but not extensively tested      |
|     yet).                                                                   |

   TITEL  = PAW_PBE Ga_d 06Jul2010
   POMASS =   69.723; ZVAL   =   13.000    mass and valenz
   ENMAX  =  282.691; ENMIN  =  212.018 eV

   TITEL  = PAW_PBE N 08Apr2002
   POMASS =   14.001; ZVAL   =    5.000    mass and valenz
   ENMAX  =  400.000; ENMIN  =  300.000 eV

  PAW_PBE Ga_d 06Jul2010                :
  PAW_PBE N 08Apr2002                   :

 POSCAR: Ga2 N2
  positions in direct lattice
 exchange correlation table for  LEXCH =        8
   RHO(1)=    0.500       N(1)  =     2000
   RHO(2)=  100.500       N(2)  =     4000

 VTST: version 4.2, (08/11/21)

 CHAIN: initializing optimizer

 OPT: Using VASP Conjugate-Gradient optimizer
 CHAIN: Read ICHAIN            0

 POSCAR: Ga2 N2
  positions in direct lattice

 ion  position               nearest neighbor table
   1  0.667  0.333  0.499-   4 1.95   4 1.95   4 1.95   3 1.96
   2  0.333  0.667  0.999-   3 1.95   3 1.95   3 1.95   4 1.96
   3  0.667  0.333  0.876-   2 1.95   2 1.95   2 1.95   1 1.96
   4  0.333  0.667  0.376-   1 1.95   1 1.95   1 1.95   2 1.96

  LATTYP: Found a hexagonal cell.
 ALAT       =     3.1889304035
 C/A-ratio  =     1.6282441424

  Lattice vectors:

 A1 = (   3.1889304035,   0.0000000000,   0.0000000000)
 A2 = (  -1.5944652018,   2.7616947404,   0.0000000000)
 A3 = (   0.0000000000,   0.0000000000,   5.1923572500)

Analysis of symmetry for initial positions (statically):
 Subroutine PRICEL returns:
 Original cell was already a primitive cell.

 Routine SETGRP: Setting up the symmetry group for a
 hexagonal supercell.

 Subroutine GETGRP returns: Found 12 space group operations
 (whereof  6 operations were pure point group operations)
 out of a pool of 24 trial point group operations.

The static configuration has the point symmetry C_3v.
 The point group associated with its full space group is C_6v.

Analysis of symmetry for dynamics (positions and initial velocities):
 Subroutine PRICEL returns:
 Original cell was already a primitive cell.

 Routine SETGRP: Setting up the symmetry group for a
 hexagonal supercell.

 Subroutine GETGRP returns: Found 12 space group operations
 (whereof  6 operations were pure point group operations)
 out of a pool of 24 trial point group operations.

The dynamic configuration has the point symmetry C_3v.
 The point group associated with its full space group is C_6v.

 Subroutine INISYM returns: Found 12 space group operations
 (whereof  6 operations are pure point group operations),
 and found     1 'primitive' translations

                                     Primitive cell

  volume of cell :      45.7283

  direct lattice vectors                    reciprocal lattice vectors
     3.188930404  0.000000000  0.000000000     0.313584768  0.181048250  0.000000000
    -1.594465202  2.761694740  0.000000000     0.000000000  0.362096500  0.000000000
     0.000000000  0.000000000  5.192357250     0.000000000  0.000000000  0.192590754

  length of vectors
     3.188930404  3.188930404  5.192357250     0.362096500  0.362096500  0.192590754

  position of ions in fractional coordinates (direct lattice)
     0.666666667  0.333333333  0.499083710
     0.333333333  0.666666667  0.999083710
     0.666666667  0.333333333  0.875916290
     0.333333333  0.666666667  0.375916290

  ion indices of the primitive-cell ions
   primitive index   ion index
                 1           1
                 2           2
                 3           3
                 4           4

 KPOINTS: Num irrep kpoints: 14

Automatic generation of k-mesh.
 Grid dimensions read from file:
 generate k-points for:    6    6    4

 Generating k-lattice:

  Cartesian coordinates                     Fractional coordinates (reciprocal lattice)
     0.052264128  0.030174708  0.000000000     0.166666667 -0.000000000  0.000000000
     0.000000000  0.060349417  0.000000000     0.000000000  0.166666667  0.000000000
     0.000000000  0.000000000  0.048147689     0.000000000  0.000000000  0.250000000

  Length of vectors
     0.060349417  0.060349417  0.048147689

  Shift w.r.t. Gamma in fractional coordinates (k-lattice)
     0.000000000  0.000000000  0.500000000

 TETIRR: Found    109 inequivalent tetrahedra from      864

 Subroutine IBZKPT returns following result:

 Found     14 irreducible k-points:

 Following reciprocal coordinates:
            Coordinates               Weight
  0.000000  0.000000  0.125000      2.000000
  0.166667 -0.000000  0.125000     12.000000
  0.333333 -0.000000  0.125000     12.000000
  0.500000 -0.000000  0.125000      6.000000
  0.166667  0.166667  0.125000     12.000000
  0.333333  0.166667  0.125000     24.000000
  0.333333  0.333333  0.125000      4.000000
  0.000000  0.000000  0.375000      2.000000
  0.166667 -0.000000  0.375000     12.000000
  0.333333 -0.000000  0.375000     12.000000
  0.500000 -0.000000  0.375000      6.000000
  0.166667  0.166667  0.375000     12.000000
  0.333333  0.166667  0.375000     24.000000
  0.333333  0.333333  0.375000      4.000000

 Following cartesian coordinates:
            Coordinates               Weight
  0.000000  0.000000  0.024074      2.000000
  0.052264  0.030175  0.024074     12.000000
  0.104528  0.060349  0.024074     12.000000
  0.156792  0.090524  0.024074      6.000000
  0.052264  0.090524  0.024074     12.000000
  0.104528  0.120699  0.024074     24.000000
  0.104528  0.181048  0.024074      4.000000
  0.000000  0.000000  0.072222      2.000000
  0.052264  0.030175  0.072222     12.000000
  0.104528  0.060349  0.072222     12.000000
  0.156792  0.090524  0.072222      6.000000
  0.052264  0.090524  0.072222     12.000000
  0.104528  0.120699  0.072222     24.000000
  0.104528  0.181048  0.072222      4.000000

 SYSTEM =  unknown system
 POSCAR =  Ga2 N2

 Startparameter for this run:
   NWRITE =      2    write-flag & timer
   PREC   = normal    normal or accurate (medium, high low for compatibility)
   ISTART =      0    job   : 0-new  1-cont  2-samecut
   ICHARG =      2    charge: 1-file 2-atom 10-const
   ISPIN  =      1    spin polarized calculation?
   LNONCOLLINEAR =      F non collinear calculations
   LSORBIT =      F    spin-orbit coupling
   INIWAV =      1    electr: 0-lowe 1-rand  2-diag
   LASPH  =      T    aspherical Exc in radial PAW
 Electronic Relaxation 1
   ENCUT  =  400.0 eV  29.40 Ry    5.42 a.u.   5.20  5.20  8.47*2*pi/ulx,y,z
   ENINI  =  400.0     initial cutoff
   ENAUG  =  627.1 eV  augmentation charge cutoff
   NELM   =    100;   NELMIN=  2; NELMDL= -5     # of ELM steps
   EDIFF  = 0.1E-06   stopping-criterion for ELM
   LREAL  =      F    real-space projection
   NLSPLINE    = F    spline interpolate recip. space projectors
   LCOMPAT=      F    compatible to vasp.4.4
   GGA_COMPAT  = T    GGA compatible to vasp.4.4-vasp.4.6
   LMAXPAW     = -100 max onsite density
   LMAXMIX     =    2 max onsite mixed and CHGCAR
   VOSKOWN=      0    Vosko Wilk Nusair interpolation
   ROPT   =    0.00000   0.00000
 Ionic relaxation
   EDIFFG = -.5E-02   stopping-criterion for IOM
   NSW    =     20    number of steps for IOM
   NBLOCK =      1;   KBLOCK =     20    inner block; outer block
   IBRION =      2    ionic relax: 0-MD 1-quasi-New 2-CG
   NFREE  =      1    steps in history (QN), initial steepest desc. (CG)
   ISIF   =      3    stress and relaxation
   IWAVPR =     11    prediction:  0-non 1-charg 2-wave 3-comb
   ISYM   =      2    0-nonsym 1-usesym 2-fastsym
   LCORR  =      T    Harris-Foulkes like correction to forces

   POTIM  = 0.5000    time-step for ionic-motion
   TEIN   =    0.0    initial temperature
   TEBEG  =    0.0;   TEEND  =   0.0 temperature during run
   SMASS  =  -3.00    Nose mass-parameter (am)
   estimated Nose-frequenzy (Omega)   =  0.10E-29 period in steps = 0.13E+47 mass=  -0.232E-27a.u.
   SCALEE = 1.0000    scale energy and forces
   NPACO  =    256;   APACO  = 10.0  distance and # of slots for P.C.
   PSTRESS=    0.0 pullay stress

  Mass of Ions in am
   POMASS =  69.72 14.00
  Ionic Valenz
   ZVAL   =  13.00  5.00
  Atomic Wigner-Seitz radii
  virtual crystal weights
   VCA    =   1.00  1.00
   NELECT =      36.0000    total number of electrons
   NUPDOWN=      -1.0000    fix difference up-down

 DOS related values:
   EMIN   =  10.00;   EMAX   =-10.00  energy-range for DOS
   EFERMI =   0.00
   ISMEAR =    -5;   SIGMA  =   0.10  broadening in eV -4-tet -1-fermi 0-gaus

 Electronic relaxation 2 (details)
   IALGO  =     38    algorithm
   LDIAG  =      T    sub-space diagonalisation (order eigenvalues)
   LSUBROT=      F    optimize rotation matrix (better conditioning)
   TURBO    =      0    0=normal 1=particle mesh
   IRESTART =      0    0=no restart 2=restart with 2 vectors
   NREBOOT  =      0    no. of reboots
   NMIN     =      0    reboot dimension
   EREF     =   0.00    reference energy to select bands
   IMIX   =      4    mixing-type and parameters
     AMIX     =   0.40;   BMIX     =  1.00
     AMIX_MAG =   1.60;   BMIX_MAG =  1.00
     AMIN     =   0.10
     WC   =   100.;   INIMIX=   1;  MIXPRE=   1;  MAXMIX= -45

 Intra band minimization:
   WEIMIN = 0.0010     energy-eigenvalue tresh-hold
   EBREAK =  0.10E-08  absolut break condition
   DEPER  =   0.30     relativ break condition

   TIME   =   0.40     timestep for ELM

  volume/ion in A,a.u.               =      11.43        77.15
  Fermi-wavevector in a.u.,A,eV,Ry     =   1.511636  2.856578 31.089905  2.285044
  Thomas-Fermi vector in A             =   2.621667

 Write flags
   LWAVE        =      F    write WAVECAR
   LDOWNSAMPLE  =      F    k-point downsampling of WAVECAR
   LCHARG       =      F    write CHGCAR
[...]
   1.59446520  0.92056491  4.54807030
  -0.00000000  1.84112983  1.95189167

 k-point   1 :   0.0000 0.0000 0.1250  plane waves:     827
 k-point   2 :   0.1667-0.0000 0.1250  plane waves:     828
 k-point   3 :   0.3333-0.0000 0.1250  plane waves:     835
 k-point   4 :   0.5000-0.0000 0.1250  plane waves:     838
 k-point   5 :   0.1667 0.1667 0.1250  plane waves:     821
 k-point   6 :   0.3333 0.1667 0.1250  plane waves:     836
 k-point   7 :   0.3333 0.3333 0.1250  plane waves:     831
 k-point   8 :   0.0000 0.0000 0.3750  plane waves:     821
 k-point   9 :   0.1667-0.0000 0.3750  plane waves:     832
 k-point  10 :   0.3333-0.0000 0.3750  plane waves:     837
 k-point  11 :   0.5000-0.0000 0.3750  plane waves:     826
 k-point  12 :   0.1667 0.1667 0.3750  plane waves:     832
 k-point  13 :   0.3333 0.1667 0.3750  plane waves:     830
 k-point  14 :   0.3333 0.3333 0.3750  plane waves:     816

 maximum and minimum number of plane-waves per node :       838      816

 maximum number of plane-waves:       838
 maximum index in each direction:
   IXMAX=    5   IYMAX=    5   IZMAX=    8
   IXMIN=   -5   IYMIN=   -5   IZMIN=   -8

 serial   3D FFT for wavefunctions
 parallel 3D FFT for charge:
    minimum data exchange during FFTs selected (reduces bandwidth)

 Broyden mixing: mesh for mixing (old mesh)
   NGX = 11   NGY = 11   NGZ = 17
  (NGX  = 32   NGY  = 32   NGZ  = 56)
  gives a total of   2057 points

 initial charge density was supplied:
 charge density of overlapping atoms calculated
 number of electron      36.0000000 magnetization
 keeping initial charge density in first step

 Maximum index for augmentation-charges          699 (set IRDMAX)

 First call to EWALD:  gamma=   0.496
 Maximum number of real-space cells 3x 3x 2
 Maximum number of reciprocal cells 3x 3x 4

--------------------------------------- Iteration      1(   1)  ---------------------------------------

 BZINTS: Fermi energy:   20.928201;   36.000000 electrons
         Band energy: 0.981820E+02;  BLOECHL correction:   -0.347755

 eigenvalue-minimisations  :   696
 total energy-change (2. order) : 0.2525001E+03  (-0.1556125E+04)
 number of electron      36.0000000 magnetization
 augmentation part       36.0000000 magnetization

 Free energy of the ion-electron system (eV)
  alpha Z        PSCENC =       197.48248217
  Ewald energy   TEWEN  =     -3172.53630689
  -Hartree energ DENC   =     -1156.54557726
  -exchange      EXHF   =         0.00000000
  -V(xc)+E(xc)   XCENC  =       128.81625065
  PAW double counting   =      3616.17691320    -4285.66495278
  entropy T*S    EENTRO =         0.00000000
  eigenvalues    EBANDS =        98.18201418
  atomic energy  EATOM  =      4826.58925392
  Solvation  Ediel_sol  =         0.00000000
  free energy    TOTEN  =       252.50007720 eV

  energy without entropy =      252.50007720  energy(sigma->0) =      252.50007720

[...]

 BZINTS: Fermi energy:    7.152862;   36.000000 electrons
         Band energy:-0.151555E+03;  BLOECHL correction:    0.000000

 eigenvalue-minimisations  :   760
 total energy-change (2. order) :-0.2497368E+03  (-0.2418238E+03)
 number of electron      36.0000000 magnetization
 augmentation part       36.0000000 magnetization

[...]

 Broyden mixing:
  rms(total) = 0.10851E+01    rms(broyden)= 0.10849E+01
  rms(prec ) = 0.23275E+01
  weight for this iteration     100.00

[...]

 eigenvalues of (default mixing * dielectric matrix)
  average eigenvalue GAMMA=   0.9365
  0.9365

[...]

 Broyden mixing:
  rms(total) = 0.37832E-03    rms(broyden)= 0.31268E-03
  rms(prec ) = 0.35929E-03
  weight for this iteration     100.00
  WARNING: grid for Broyden might be to small

[...]

 average (electrostatic) potential at core
  the test charge radii are     1.0314  0.7089
  (the norm of the test charge is              1.0000)
       1 -63.4938       2 -63.4938       3 -62.0638       4 -62.0638

 E-fermi :   5.2776     XC(G=0): -11.6651     alpha+bet :-13.3927

 Fermi energy:         5.2776150183

 k-point     1 :       0.0000    0.0000    0.1250
  band No.  band energies     occupation
      1     -10.6218      2.00000
      2      -9.7651      2.00000
      3      -8.1116      2.00000
      4      -8.1078      2.00000
      5      -8.1078      2.00000
      6      -8.0511      2.00000
      7      -8.0511      2.00000
      8      -7.8505      2.00000
      9      -7.8505      2.00000
     10      -7.7607      2.00000
     11      -7.7607      2.00000
     12      -6.6948      2.00000
     13      -1.4423      2.00000
     14       4.3171      2.00000
     15       4.3176      2.00000
     16       4.7766      2.00000
     17       5.2769      2.00000
     18       5.2775      2.00000
     19       7.6520      0.00000
     20       9.5835      0.00000
     21      14.4049      0.00000
     22      15.2142      0.00000
     23      15.2142      0.00000
     24      15.6380      0.00000

[...]

 soft charge-density along one line, spin component           1
         0         1         2         3         4         5         6         7         8         9
 total charge-density along one line

------------------------ aborting loop because EDIFF is reached ----------------------------------------

 total charge

# of ion       s       p       d       tot
    1        0.787   0.897  10.180  11.863
    2        0.787   0.897  10.180  11.863
    3        1.237   2.474   0.000   3.711
    4        1.237   2.474   0.000   3.711
tot          4.048   6.741  20.360  31.149

  FORCE on cell =-STRESS in cart. coord.  units (eV):
  Direction    XX          YY          ZZ          XY          YZ          ZX
  Alpha Z   197.48248   197.48248   197.48248
  Ewald   -1066.85482 -1066.85482 -1038.82883     0.00000     0.00000     0.00000
  Hartree   379.43369   379.43369   402.71388    -0.00000    -0.00000    -0.00000
  E(xc)    -201.13181  -201.13174  -201.11663     0.00006     0.00001     0.00000
  Local     123.81676   123.81418    72.40721    -0.00223    -0.00026    -0.00015
  n-local    -4.54943    -5.23068    -5.33739     1.57546     0.06796     0.19313
  augment   247.52317   247.52482   247.65033     0.00143     0.00001     0.00001
  Kinetic   321.64234   328.60048   325.54108    -6.92187    -0.96454    -1.55260
  Fock        0.00000     0.00000     0.00000     0.00000     0.00000     0.00000
  Total       0.50039     0.50039     0.51214    -0.00000     0.00000     0.00000
  in kB      17.53225    17.53225    17.94371    -0.00000     0.00000     0.00000

 VOLUME and BASIS-vectors are now :
  energy-cutoff  :      400.00
  volume of cell :       45.73
      direct lattice vectors                 reciprocal lattice vectors
     3.188930404  0.000000000  0.000000000     0.313584768  0.181048250  0.000000000
    -1.594465202  2.761694740  0.000000000     0.000000000  0.362096500  0.000000000
     0.000000000  0.000000000  5.192357250     0.000000000  0.000000000  0.192590754

[...]

 FORCES acting on ions
    electron-ion (+dipol)            ewald-force                    non-local-force                 convergence-correction
   -.233E-04 -.105E-03 -.385E+01   -.921E-07 0.366E-07 0.386E+01   0.471E-16 0.177E-16 0.272E-02   0.237E-07 -.142E-07 0.130E-03
   -.792E-04 -.726E-04 -.385E+01   0.921E-07 -.366E-07 0.386E+01   -.777E-16 -.624E-17 0.272E-02   -.242E-07 0.135E-07 0.130E-03
   0.307E-04 -.836E-05 0.360E+01   -.824E-07 0.335E-07 -.386E+01   0.378E-17 -.546E-18 0.254E+00   0.645E-08 -.375E-08 -.581E-05
   -.227E-04 0.225E-04 0.360E+01   0.824E-07 -.335E-07 -.386E+01   0.984E-17 0.542E-18 0.254E+00   -.647E-08 0.371E-08 -.581E-05
   -.945E-04 -.163E-03 -.508E+00   -.436E-14 0.222E-15 0.000E+00   -.170E-16 0.115E-16 0.513E+00   -.460E-09 -.792E-09 0.248E-03

 POSITION                                       TOTAL-FORCE (eV/Angst)
      1.59447      0.92056      2.59142        -0.000000     -0.000000      0.006404
     -0.00000      1.84113      5.18760         0.000000      0.000000      0.006404
      1.59447      0.92056      4.54807        -0.000000      0.000000     -0.006404
     -0.00000      1.84113      1.95189         0.000000     -0.000000     -0.006404
    total drift:                               -0.000094     -0.000163      0.005423

  FREE ENERGIE OF THE ION-ELECTRON SYSTEM (eV)
  free  energy   TOTEN  =       -24.30544383 eV

  energy  without entropy=      -24.30544383  energy(sigma->0) =      -24.30544383

 stress matrix after NEB project (eV)
      0.50039     -0.00000      0.00000
     -0.00000      0.50039      0.00000
      0.00000      0.00000      0.51214
  FORCES: max atom, RMS     0.006404    0.006404
  FORCE total and by dimension    0.012807    0.006404
  Stress total and by dimension    0.873541    0.512138

[...]

 d Force = 0.2624490E-05[-0.271E-05, 0.796E-05]  d Energy =-0.5682159E-03 0.571E-03
 d Force = 0.4747216E-02[ 0.470E-02, 0.480E-02]  d Ewald  =-0.1917230E+02 0.192E+02

 stress matrix after NEB project (eV)
     -0.55876      0.00000      0.00000
      0.00000     -0.55876     -0.00000
      0.00000      0.00000     -0.54032
  FORCES: max atom, RMS     0.002182    0.002182
  FORCE total and by dimension    0.004364    0.002182
  Stress total and by dimension    0.957272    0.558761
 Steepest descent step on ions:
 trial-energy change:    0.000568  1 .order    0.000437   -0.009211    0.010084
  (g-gl).g = 0.921E-02      g.g   = 0.921E-02  gl.gl    = 0.000E+00
 g(Force)  = 0.791E-05   g(Stress)= 0.920E-02 ortho     = 0.000E+00
 gamma     =   0.00000
 trial     =   1.00000
 opt step  =   0.46719  (harmonic =   0.47737) maximal distance =0.00014433
 next E    =   -24.307582   (d E  =  -0.00214)

[...]

 Broyden mixing:
  rms(total) = 0.45732E-02    rms(broyden)= 0.45679E-02
  rms(prec ) = 0.67351E-02
  weight for this iteration     100.00

[...]

 eigenvalue-minimisations  :  1016
 total energy-change (2. order) : 0.1246743E-03  (-0.1086870E-04)
 number of electron      36.0000019 magnetization
 augmentation part       17.3971653 magnetization

[...]

 Broyden mixing:
  rms(total) = 0.33650E-03    rms(broyden)= 0.25704E-03
  rms(prec ) = 0.31856E-03
  weight for this iteration     100.00
  WARNING: grid for Broyden might be to small

 eigenvalues of (default mixing * dielectric matrix)
  average eigenvalue GAMMA=   1.3658
  2.5490  1.3136  1.3136  1.2331  0.8926  0.8926

[...]

--------------------------------------- Iteration      3(   8)  ---------------------------------------

[...]

 eigenvalue-minimisations  :   688
 total energy-change (2. order) :-0.1113222E-08  (-0.3547745E-07)
 number of electron      36.0000019 magnetization
 augmentation part       17.3970984 magnetization

 Free energy of the ion-electron system (eV)
  alpha Z        PSCENC =       195.80852238
  Ewald energy   TEWEN  =     -3163.55032840
  -Hartree energ DENC   =     -1166.15412886
  -exchange      EXHF   =         0.00000000
  -V(xc)+E(xc)   XCENC  =       129.94121185
  PAW double counting   =      4470.26244280    -5147.48339377
  entropy T*S    EENTRO =         0.00000000
  eigenvalues    EBANDS =      -169.72116127
  atomic energy  EATOM  =      4826.58925392
  Solvation  Ediel_sol  =         0.00000000
  free energy    TOTEN  =       -24.30758133 eV

  energy without entropy =      -24.30758133  energy(sigma->0) =      -24.30758133

 average (electrostatic) potential at core
  the test charge radii are     1.0314  0.7089
  (the norm of the test charge is              1.0000)
       1 -63.5880       2 -63.5880       3 -62.1562       4 -62.1562

 E-fermi :   5.1866     XC(G=0): -11.6197     alpha+bet :-13.2792

 Fermi energy:         5.1866141688

[...]

 k-point    14 :       0.3333    0.3333    0.3750
  band No.  band energies     occupation
      1      -9.6350      2.00000
      2      -9.6350      2.00000
      3      -8.1135      2.00000
      4      -8.0690      2.00000
      5      -8.0690      2.00000
      6      -8.0153      2.00000
      7      -7.9257      2.00000
      8      -7.9243      2.00000
      9      -7.9101      2.00000
     10      -7.9101      2.00000
     11      -6.1912      2.00000
     12      -6.1912      2.00000
     13      -0.8087      2.00000
     14      -0.8087      2.00000
     15       0.6423      2.00000
     16       1.5716      2.00000
     17       3.5639      2.00000
     18       3.5639      2.00000
     19      11.8025      0.00000
     20      11.8025      0.00000
     21      11.8430      0.00000
     22      13.0716      0.00000
     23      14.2423      0.00000
     24      14.2423      0.00000

 soft charge-density along one line, spin component           1
         0         1         2         3         4         5         6         7         8         9
 total charge-density along one line

------------------------ aborting loop because EDIFF is reached ----------------------------------------

[...]

  FORCE on cell =-STRESS in cart. coord.  units (eV):
  Direction    XX          YY          ZZ          XY          YZ          ZX
  Alpha Z   195.80852   195.80852   195.80852
  Ewald   -1063.92990 -1063.92990 -1035.69270     0.00000    -0.00000    -0.00000
  Hartree   380.92885   380.92885   404.30109    -0.00000    -0.00000    -0.00000
  E(xc)    -201.03389  -201.03381  -201.01799     0.00007     0.00001     0.00000
  Local     121.16587   121.16326    69.46740    -0.00226    -0.00026    -0.00015
  n-local    -4.76987    -5.45768    -5.54187     1.58932     0.07102     0.19559
  augment   247.57347   247.57511   247.69366     0.00143     0.00001     0.00001
  Kinetic   321.11637   328.09430   325.00094    -6.99594    -0.98192    -1.56572
  Fock        0.00000     0.00000     0.00000     0.00000     0.00000     0.00000
  Total       0.00403     0.00403     0.01907    -0.00000    -0.00000     0.00000
  in kB       0.13999     0.13999     0.66246    -0.00000    -0.00000     0.00000

 VOLUME and BASIS-vectors are now :
  energy-cutoff  :      400.00
  volume of cell :       46.12
      direct lattice vectors                 reciprocal lattice vectors
     3.197921643 -0.000000000  0.000000000     0.312703096  0.180539217 -0.000000000
    -1.598960822  2.769481382  0.000000000     0.000000000  0.361078434 -0.000000000
     0.000000000  0.000000000  5.207340764    -0.000000000 -0.000000000  0.192036597

  length of vectors
     3.197921643  3.197921643  5.207340764     0.361078434  0.361078434  0.192036597

 FORCES acting on ions
    electron-ion (+dipol)            ewald-force                    non-local-force                 convergence-correction
   -.240E-04 -.109E-03 -.382E+01   -.916E-07 0.363E-07 0.382E+01   0.201E-16 0.584E-16 0.669E-04   -.859E-08 0.497E-08 -.222E-03
   -.821E-04 -.752E-04 -.382E+01   0.916E-07 -.363E-07 0.382E+01   -.240E-16 -.739E-16 0.669E-04   0.859E-08 -.495E-08 -.222E-03
   0.328E-04 -.112E-04 0.356E+01   -.820E-07 0.332E-07 -.382E+01   -.842E-17 0.158E-16 0.255E+00   0.614E-08 -.358E-08 0.605E-04
   -.262E-04 0.228E-04 0.356E+01   0.820E-07 -.332E-07 -.382E+01   -.727E-17 -.398E-18 0.255E+00   -.617E-08 0.353E-08 0.605E-04
   -.996E-04 -.172E-03 -.504E+00   0.256E-14 -.158E-14 0.000E+00   -.195E-16 -.187E-18 0.510E+00   -.201E-10 -.363E-10 -.322E-03

 POSITION                                       TOTAL-FORCE (eV/Angst)
      1.59896      0.92316      2.59904        -0.000000      0.000000      0.002288
     -0.00000      1.84632      5.20272         0.000000     -0.000000      0.002288
      1.59896      0.92316      4.56105         0.000000      0.000000     -0.002288
     -0.00000      1.84632      1.95738        -0.000000     -0.000000     -0.002288
    total drift:                               -0.000100     -0.000172      0.005808

  FREE ENERGIE OF THE ION-ELECTRON SYSTEM (eV)
  free  energy   TOTEN  =       -24.30758133 eV

  energy  without entropy=      -24.30758133  energy(sigma->0) =      -24.30758133

 d Force =-0.3467528E-07[-0.150E-05, 0.143E-05]  d Energy = 0.2705714E-02-0.271E-02
 d Force =-0.2492839E-02[-0.251E-02,-0.248E-02]  d Ewald  = 0.1018632E+02-0.102E+02

 stress matrix after NEB project (eV)
      0.00403     -0.00000      0.00000
     -0.00000      0.00403     -0.00000
      0.00000     -0.00000      0.01907
  FORCES: max atom, RMS     0.002288    0.002288
  FORCE total and by dimension    0.004575    0.002288
  Stress total and by dimension    0.019903    0.019069

 reached required accuracy - stopping structural energy minimisation

 total charge

# of ion       s       p       d       tot
    1        0.785   0.886  10.174  11.846
    2        0.785   0.886  10.174  11.846
    3        1.238   2.465   0.000   3.703
    4        1.238   2.465   0.000   3.703
tot          4.047   6.703  20.349  31.099

 BZINTS: Fermi energy:    5.186614;   36.000000 electrons
         Band energy:-0.169721E+03;  BLOECHL correction:    0.000000