 vasp.6.3.1 04May22 (build Jun 07 2022 20:23:04) complex

 executed on             LinuxIFC date 2024.03.28  16:28:01

 INCAR:
   ALGO = Normal
   EDIFF = 1e-09
   EDIFFG = -0.005
   ENCUT = 400.0
   IBRION = 2
   ISIF = 3
   ISMEAR = 0
   KPAR = 4
   LASPH = True
   LCHARG = False
   LORBIT = 10
   LREAL = False
   LWAVE = False
   NELM = 100
   NSW = 20
   PREC = Normal
   SIGMA = 0.1

 POTCAR:    PAW_PBE Ga_d 06Jul2010
 POTCAR:    PAW_PBE N 08Apr2002
|           W    W    AA    RRRRR   N    N  II  N    N   GGGG   !!!           |
|           W    W   A  A   R    R  NN   N  II  NN   N  G    G  !!!           |
|           W    W  A    A  R    R  N N  N  II  N N  N  G       !!!           |
|           W WW W  AAAAAA  RRRRR   N  N N  II  N  N N  G  GGG   !            |
|           WW  WW  A    A  R   R   N   NN  II  N   NN  G    G                |
|           W    W  A    A  R    R  N    N  II  N    N   GGGG   !!!           |
|     For optimal performance we recommend to set                             |
|       NCORE = 2 up to number-of-cores-per-socket                            |
|     This setting can greatly improve the performance of VASP for DFT.       |
|     The default, NCORE=1 might be grossly inefficient on modern             |
|     multi-core architectures or massively parallel machines. Do your        |
|     Unfortunately you need to use the default for GW and RPA                |
|     calculations (for HF NCORE is supported but not extensively tested      |
|     yet).                                                                   |

   TITEL  = PAW_PBE Ga_d 06Jul2010
   POMASS =   69.723; ZVAL   =   13.000    mass and valenz
   ENMAX  =  282.691; ENMIN  =  212.018 eV

   TITEL  = PAW_PBE N 08Apr2002
   POMASS =   14.001; ZVAL   =    5.000    mass and valenz
   ENMAX  =  400.000; ENMIN  =  300.000 eV

  PAW_PBE Ga_d 06Jul2010                :
  PAW_PBE N 08Apr2002                   :

 POSCAR: Ga2 N2
  positions in direct lattice
 exchange correlation table for  LEXCH =        8
   RHO(1)=    0.500       N(1)  =     2000
   RHO(2)=  100.500       N(2)  =     4000

 VTST: version 4.2, (08/11/21)

 CHAIN: initializing optimizer

 OPT: Using VASP Conjugate-Gradient optimizer
 CHAIN: Read ICHAIN            0

 POSCAR: Ga2 N2
  positions in direct lattice

 ion  position               nearest neighbor table
   1  0.333  0.667  0.000-   3 1.94   4 1.95   4 1.95   4 1.95
   2  0.667  0.333  0.500-   4 1.94   3 1.95   3 1.95   3 1.95
   3  0.333  0.667  0.375-   1 1.94   2 1.95   2 1.95   2 1.95
   4  0.667  0.333  0.875-   2 1.94   1 1.95   1 1.95   1 1.95

  LATTYP: Found a hexagonal cell.
 ALAT       =     3.1800000668
 C/A-ratio  =     1.6245282330

  Lattice vectors:

 A1 = (   3.1800000668,   0.0000000000,   0.0000000000)
 A2 = (  -1.5900000334,   2.7539608419,   0.0000000000)
 A3 = (   0.0000000000,   0.0000000000,   5.1659998894)

Analysis of symmetry for initial positions (statically):
 Subroutine PRICEL returns:
 Original cell was already a primitive cell.

 Routine SETGRP: Setting up the symmetry group for a
 hexagonal supercell.

 Subroutine GETGRP returns: Found 12 space group operations
 (whereof  6 operations were pure point group operations)
 out of a pool of 24 trial point group operations.

The static configuration has the point symmetry C_3v.
 The point group associated with its full space group is C_6v.

Analysis of symmetry for dynamics (positions and initial velocities):
 Subroutine PRICEL returns:
 Original cell was already a primitive cell.

 Routine SETGRP: Setting up the symmetry group for a
 hexagonal supercell.

 Subroutine GETGRP returns: Found 12 space group operations
 (whereof  6 operations were pure point group operations)
 out of a pool of 24 trial point group operations.

The dynamic configuration has the point symmetry C_3v.
 The point group associated with its full space group is C_6v.

 Subroutine INISYM returns: Found 12 space group operations
 (whereof  6 operations are pure point group operations),
 and found     1 'primitive' translations

                                     Primitive cell

  volume of cell :      45.2417

  direct lattice vectors                    reciprocal lattice vectors
     3.180000067  0.000000000  0.000000000     0.314465402  0.181556685  0.000000000
    -1.590000033  2.753960842  0.000000000     0.000000000  0.363113369  0.000000000
     0.000000000  0.000000000  5.165999889     0.000000000  0.000000000  0.193573368

  length of vectors
     3.180000067  3.180000067  5.165999889     0.363113369  0.363113369  0.193573368

  position of ions in fractional coordinates (direct lattice)
     0.333333333  0.666666667  0.000000000
     0.666666667  0.333333333  0.500000000
     0.333333333  0.666666667  0.375000000
     0.666666667  0.333333333  0.875000000

  ion indices of the primitive-cell ions
   primitive index   ion index
                 1           1
                 2           2
                 3           3
                 4           4

 KPOINTS: Num irrep kpoints: 76

Automatic generation of k-mesh.
 Grid dimensions read from file:
 generate k-points for:   12   12    7

 Generating k-lattice:

  Cartesian coordinates                     Fractional coordinates (reciprocal lattice)
     0.026205450  0.015129724  0.000000000     0.083333333 -0.000000000  0.000000000
     0.000000000  0.030259447  0.000000000     0.000000000  0.083333333  0.000000000
     0.000000000  0.000000000  0.027653338     0.000000000  0.000000000  0.142857143

  Length of vectors
     0.030259447  0.030259447  0.027653338

  Shift w.r.t. Gamma in fractional coordinates (k-lattice)
     0.000000000  0.000000000  0.000000000

 Subroutine IBZKPT returns following result:

 Found     76 irreducible k-points:

 Following reciprocal coordinates:
            Coordinates               Weight
  0.000000  0.000000  0.000000      1.000000
  0.083333  0.000000  0.000000      6.000000
  0.166667  0.000000  0.000000      6.000000
  0.250000  0.000000  0.000000      6.000000
  0.333333  0.000000  0.000000      6.000000
  0.416667  0.000000  0.000000      6.000000
  0.500000  0.000000  0.000000      3.000000
  0.083333  0.083333  0.000000      6.000000
  0.166667  0.083333  0.000000     12.000000
  0.250000  0.083333  0.000000     12.000000
  0.333333  0.083333  0.000000     12.000000
  0.416667  0.083333  0.000000     12.000000
  0.166667  0.166667  0.000000      6.000000
  0.250000  0.166667  0.000000     12.000000
  0.333333  0.166667  0.000000     12.000000
  0.416667  0.166667  0.000000      6.000000
  0.250000  0.250000  0.000000      6.000000
  0.333333  0.250000  0.000000     12.000000
  0.333333  0.333333  0.000000      2.000000
  0.000000  0.000000  0.142857      2.000000
  0.083333  0.000000  0.142857     12.000000
  0.166667  0.000000  0.142857     12.000000
  0.250000  0.000000  0.142857     12.000000
  0.333333  0.000000  0.142857     12.000000
  0.416667  0.000000  0.142857     12.000000
  0.500000  0.000000  0.142857      6.000000
  0.083333  0.083333  0.142857     12.000000
  0.166667  0.083333  0.142857     24.000000
  0.250000  0.083333  0.142857     24.000000
  0.333333  0.083333  0.142857     24.000000
  0.416667  0.083333  0.142857     24.000000
  0.166667  0.166667  0.142857     12.000000
  0.250000  0.166667  0.142857     24.000000
  0.333333  0.166667  0.142857     24.000000
  0.416667  0.166667  0.142857     12.000000
  0.250000  0.250000  0.142857     12.000000
  0.333333  0.250000  0.142857     24.000000
  0.333333  0.333333  0.142857      4.000000
  0.000000  0.000000  0.285714      2.000000
  0.083333  0.000000  0.285714     12.000000
  0.166667  0.000000  0.285714     12.000000
  0.250000  0.000000  0.285714     12.000000
  0.333333  0.000000  0.285714     12.000000
  0.416667  0.000000  0.285714     12.000000
  0.500000  0.000000  0.285714      6.000000
  0.083333  0.083333  0.285714     12.000000
  0.166667  0.083333  0.285714     24.000000
  0.250000  0.083333  0.285714     24.000000
  0.333333  0.083333  0.285714     24.000000
  0.416667  0.083333  0.285714     24.000000
  0.166667  0.166667  0.285714     12.000000
  0.250000  0.166667  0.285714     24.000000
  0.333333  0.166667  0.285714     24.000000
  0.416667  0.166667  0.285714     12.000000
  0.250000  0.250000  0.285714     12.000000
  0.333333  0.250000  0.285714     24.000000
  0.333333  0.333333  0.285714      4.000000
  0.000000  0.000000  0.428571      2.000000
  0.083333  0.000000  0.428571     12.000000
  0.166667  0.000000  0.428571     12.000000
  0.250000  0.000000  0.428571     12.000000
  0.333333  0.000000  0.428571     12.000000
  0.416667  0.000000  0.428571     12.000000
  0.500000  0.000000  0.428571      6.000000
  0.083333  0.083333  0.428571     12.000000
  0.166667  0.083333  0.428571     24.000000
  0.250000  0.083333  0.428571     24.000000
  0.333333  0.083333  0.428571     24.000000
  0.416667  0.083333  0.428571     24.000000
  0.166667  0.166667  0.428571     12.000000
  0.250000  0.166667  0.428571     24.000000
  0.333333  0.166667  0.428571     24.000000
  0.416667  0.166667  0.428571     12.000000
  0.250000  0.250000  0.428571     12.000000
  0.333333  0.250000  0.428571     24.000000
  0.333333  0.333333  0.428571      4.000000

 Following cartesian coordinates:
            Coordinates               Weight
  0.000000  0.000000  0.000000      1.000000
  0.026205  0.015130  0.000000      6.000000
  0.052411  0.030259  0.000000      6.000000
  0.078616  0.045389  0.000000      6.000000
  0.104822  0.060519  0.000000      6.000000
  0.131027  0.075649  0.000000      6.000000
  0.157233  0.090778  0.000000      3.000000
  0.026205  0.045389  0.000000      6.000000
  0.052411  0.060519  0.000000     12.000000
  0.078616  0.075649  0.000000     12.000000
  0.104822  0.090778  0.000000     12.000000
  0.131027  0.105908  0.000000     12.000000
  0.052411  0.090778  0.000000      6.000000
  0.078616  0.105908  0.000000     12.000000
  0.104822  0.121038  0.000000     12.000000
  0.131027  0.136168  0.000000      6.000000
  0.078616  0.136168  0.000000      6.000000
  0.104822  0.151297  0.000000     12.000000
  0.104822  0.181557  0.000000      2.000000
  0.000000  0.000000  0.027653      2.000000
  0.026205  0.015130  0.027653     12.000000
  0.052411  0.030259  0.027653     12.000000
  0.078616  0.045389  0.027653     12.000000
  0.104822  0.060519  0.027653     12.000000
  0.131027  0.075649  0.027653     12.000000
  0.157233  0.090778  0.027653      6.000000
  0.026205  0.045389  0.027653     12.000000
  0.052411  0.060519  0.027653     24.000000
  0.078616  0.075649  0.027653     24.000000
  0.104822  0.090778  0.027653     24.000000
  0.131027  0.105908  0.027653     24.000000
  0.052411  0.090778  0.027653     12.000000
  0.078616  0.105908  0.027653     24.000000
  0.104822  0.121038  0.027653     24.000000
  0.131027  0.136168  0.027653     12.000000
  0.078616  0.136168  0.027653     12.000000
  0.104822  0.151297  0.027653     24.000000
  0.104822  0.181557  0.027653      4.000000
  0.000000  0.000000  0.055307      2.000000
  0.026205  0.015130  0.055307     12.000000
  0.052411  0.030259  0.055307     12.000000
[...]
 number of electron      36.0000000 magnetization
 augmentation part       36.0000000 magnetization

 Free energy of the ion-electron system (eV)
  alpha Z        PSCENC =       199.60645165
  Ewald energy   TEWEN  =     -3183.85810762
  -Hartree energ DENC   =     -1150.69441055
  -exchange      EXHF   =         0.00000000
  -V(xc)+E(xc)   XCENC  =       128.94449688
  PAW double counting   =      3616.17691320    -4285.66495278
  entropy T*S    EENTRO =        -0.00732324
  eigenvalues    EBANDS =        90.40784165
  atomic energy  EATOM  =      4826.58925392
  Solvation  Ediel_sol  =         0.00000000
  free energy    TOTEN  =       241.50016311 eV

  energy without entropy =      241.50748635  energy(sigma->0) =      241.50382473

[...]

 eigenvalue-minimisations  :  4080
 total energy-change (2. order) :-0.2416468E+03  (-0.2303331E+03)
 number of electron      36.0000000 magnetization
 augmentation part       36.0000000 magnetization

[...]

 Broyden mixing:
  rms(total) = 0.10912E+01    rms(broyden)= 0.10910E+01
  rms(prec ) = 0.23434E+01
  weight for this iteration     100.00

[...]

 eigenvalues of (default mixing * dielectric matrix)
  average eigenvalue GAMMA=   0.9428
  0.9428

[...]

 Broyden mixing:
  rms(total) = 0.28249E-03    rms(broyden)= 0.19475E-03
  rms(prec ) = 0.21824E-03
  weight for this iteration     100.00
  WARNING: grid for Broyden might be to small

[...]

 average (electrostatic) potential at core
  the test charge radii are     1.0314  0.7089
  (the norm of the test charge is              1.0000)
       1 -63.3744       2 -63.3744       3 -61.9533       4 -61.9533

 E-fermi :   5.8388     XC(G=0): -11.7232     alpha+bet :-13.5367

 Fermi energy:         5.8387901020

 k-point     1 :       0.0000    0.0000    0.0000
  band No.  band energies     occupation
      1     -10.6448      2.00000
      2      -9.6817      2.00000
      3      -8.0193      2.00000
      4      -7.9979      2.00000
      5      -7.9979      2.00000
      6      -7.9332      2.00000
      7      -7.9332      2.00000
      8      -7.7391      2.00000
      9      -7.7391      2.00000
     10      -7.6367      2.00000
     11      -7.6367      2.00000
     12      -6.4010      2.00000
     13      -1.7157      2.00000
     14       4.3699      2.00000
     15       4.3704      2.00000
     16       5.3795      2.00000
     17       5.4361      2.00000
     18       5.4367      2.00000
     19       7.3999      0.00000
     20       9.7327      0.00000
     21      14.7047      0.00000
     22      15.3563      0.00000
     23      15.3564      0.00000
     24      16.2785      0.00000

[...]

 soft charge-density along one line, spin component           1
         0         1         2         3         4         5         6         7         8         9
 total charge-density along one line

------------------------ aborting loop because EDIFF is reached ----------------------------------------

 total charge

# of ion       s       p       d       tot
    1        0.789   0.910  10.186  11.885
    2        0.789   0.910  10.186  11.885
    3        1.237   2.482   0.000   3.719
    4        1.237   2.482   0.000   3.719
tot          4.053   6.783  20.373  31.208

  FORCE on cell =-STRESS in cart. coord.  units (eV):
  Direction    XX          YY          ZZ          XY          YZ          ZX
  Alpha Z   199.60645   199.60645   199.60645
  Ewald   -1077.28542 -1077.28542 -1029.28945     0.00000     0.00000     0.00000
  Hartree   374.20562   374.20562   407.38153    -0.00000    -0.00000    -0.00000
  E(xc)    -201.26533  -201.26526  -201.21222     0.00006     0.00001     0.00000
  Local     137.06489   137.06238    56.15715    -0.00218    -0.00025    -0.00015
  n-local    -4.52017    -5.02918    -4.60851     1.64983     0.06518     0.17192
  augment   247.50245   247.50409   247.49418     0.00142     0.00001     0.00001
  Kinetic   322.49214   329.17216   325.94431    -6.97053    -0.90918    -1.34959
  Fock        0.00000     0.00000     0.00000     0.00000     0.00000     0.00000
  Total       0.88573     0.88573     1.47344     0.00000     0.00000     0.00000
  in kB      31.36696    31.36696    52.18002     0.00000     0.00000     0.00000

 VOLUME and BASIS-vectors are now :
  energy-cutoff  :      400.00
  volume of cell :       45.24
      direct lattice vectors                 reciprocal lattice vectors
     3.180000067  0.000000000  0.000000000     0.314465402  0.181556685  0.000000000
    -1.590000033  2.753960842  0.000000000     0.000000000  0.363113369  0.000000000
     0.000000000  0.000000000  5.165999889     0.000000000  0.000000000  0.193573368

[...]

 FORCES acting on ions
    electron-ion (+dipol)            ewald-force                    non-local-force                 convergence-correction
   -.745E-04 -.714E-04 -.873E+00   0.835E-07 -.457E-07 0.101E+01   0.112E-16 -.230E-16 -.267E+00   -.308E-09 0.148E-09 0.146E-05
   -.246E-04 -.100E-03 -.873E+00   -.835E-07 0.457E-07 0.101E+01   0.141E-16 -.542E-18 -.267E+00   0.282E-09 -.193E-09 0.146E-05
   -.192E-04 0.212E-04 0.104E+01   0.750E-07 -.411E-07 -.101E+01   0.642E-17 -.176E-17 0.104E+00   -.956E-10 0.551E-10 -.113E-05
   0.278E-04 -.598E-05 0.104E+01   -.750E-07 0.411E-07 -.101E+01   -.575E-17 0.630E-17 0.104E+00   0.954E-10 -.552E-10 -.113E-05
   -.904E-04 -.156E-03 0.329E+00   -.900E-14 0.166E-13 0.888E-15   0.259E-16 -.190E-16 -.327E+00   -.261E-10 -.448E-10 0.661E-06

 POSITION                                       TOTAL-FORCE (eV/Angst)
     -0.00000      1.83597      0.00000        -0.000000      0.000000     -0.133856
      1.59000      0.91799      2.58300         0.000000      0.000000     -0.133856
     -0.00000      1.83597      1.93725        -0.000000      0.000000      0.133856
      1.59000      0.91799      4.52025         0.000000     -0.000000      0.133856
    total drift:                               -0.000090     -0.000156      0.001255

  FREE ENERGIE OF THE ION-ELECTRON SYSTEM (eV)
  free  energy   TOTEN  =       -24.28703237 eV

  energy  without entropy=      -24.28703237  energy(sigma->0) =      -24.28703237

 stress matrix after NEB project (eV)
      0.88573      0.00000      0.00000
      0.00000      0.88573     -0.00000
      0.00000      0.00000      1.47344
  FORCES: max atom, RMS     0.133856    0.133856
  FORCE total and by dimension    0.267712    0.133856
  Stress total and by dimension    1.933925    1.473442

[...]

 d Force = 0.7225750E-03[-0.207E-02, 0.352E-02]  d Energy =-0.2478145E-02 0.320E-02
 d Force =-0.1013661E+00[-0.176E+00,-0.265E-01]  d Ewald  =-0.4094574E+02 0.408E+02

 stress matrix after NEB project (eV)
     -0.98835      0.00000      0.00000
      0.00000     -0.98835      0.00000
     -0.00000      0.00000     -1.59419
  FORCES: max atom, RMS     0.078885    0.078885
  FORCE total and by dimension    0.157770    0.078885
  Stress total and by dimension    2.120163    1.594186
 Steepest descent step on ions:
 trial-energy change:    0.002478  1 .order    0.001459   -0.048565    0.051483
  (g-gl).g = 0.486E-01      g.g   = 0.486E-01  gl.gl    = 0.000E+00
 g(Force)  = 0.346E-02   g(Stress)= 0.451E-01 ortho     = 0.000E+00
 gamma     =   0.00000
 trial     =   1.00000
 opt step  =   0.47019  (harmonic =   0.48542) maximal distance =0.00303630
 next E    =   -24.298344   (d E  =  -0.01131)

[...]

 d Force = 0.3920411E-03[-0.285E-03, 0.107E-02]  d Energy = 0.1370571E-01-0.133E-01
 d Force = 0.7110110E-01[ 0.513E-01, 0.909E-01]  d Ewald  = 0.2159621E+02-0.215E+02

[...]

 d Force =-0.1567190E-05[-0.159E-05,-0.154E-05]  d Energy = 0.2475626E-06-0.181E-05
 d Force = 0.2770275E-03[ 0.276E-03, 0.278E-03]  d Ewald  = 0.1163856E+00-0.116E+00

[...]

 d Force = 0.3749298E-06[ 0.374E-06, 0.376E-06]  d Energy = 0.1268381E-07 0.362E-06
 d Force =-0.6547011E-04[-0.655E-04,-0.654E-04]  d Ewald  =-0.2754940E-01 0.275E-01

[...]

 d Force = 0.4526257E-04[ 0.978E-05, 0.807E-04]  d Energy = 0.5250715E-04-0.724E-05
 d Force =-0.1452516E-01[-0.149E-01,-0.142E-01]  d Ewald  = 0.2850576E+00-0.300E+00

 stress matrix after NEB project (eV)
      0.02337     -0.00000      0.00000
     -0.00000      0.02337      0.00000
      0.00000      0.00000     -0.02763
  FORCES: max atom, RMS     0.002606    0.002606
  FORCE total and by dimension    0.005212    0.002606
  Stress total and by dimension    0.043078    0.027627
 Conjugate gradient step on ions:
 trial-energy change:   -0.000053  1 .order   -0.000053   -0.000088   -0.000017
  (g-gl).g = 0.961E-04      g.g   = 0.989E-04  gl.gl    = 0.486E-01
 g(Force)  = 0.893E-04   g(Stress)= 0.958E-05 ortho     = 0.276E-05
 gamma     =   0.00198
 trial     =   0.89360
 opt step  =   1.10319  (harmonic =   1.10319) maximal distance =0.00115887
 next E    =   -24.298315   (d E  =  -0.00005)

[...]

 d Force = 0.3479890E-06[-0.160E-05, 0.229E-05]  d Energy = 0.1964768E-05-0.162E-05
 d Force =-0.3514088E-02[-0.353E-02,-0.349E-02]  d Ewald  = 0.6682327E-01-0.703E-01

 stress matrix after NEB project (eV)
      0.02970      0.00000      0.00000
      0.00000      0.02970      0.00000
      0.00000      0.00000     -0.02724
  FORCES: max atom, RMS     0.001816    0.001816
  FORCE total and by dimension    0.003631    0.001816
  Stress total and by dimension    0.050058    0.029697

[...]

 Broyden mixing:
  rms(total) = 0.70550E-03    rms(broyden)= 0.67283E-03
  rms(prec ) = 0.10523E-02
  weight for this iteration     100.00

[...]

 eigenvalue-minimisations  :  2024
 total energy-change (2. order) : 0.2245542E-08  (-0.7631828E-10)
 number of electron      36.0000018 magnetization
 augmentation part       17.3966560 magnetization

 Broyden mixing:
  rms(total) = 0.21151E-03    rms(broyden)= 0.25472E-05
  rms(prec ) = 0.41269E-05
  weight for this iteration     100.00
  WARNING: grid for Broyden might be to small

 eigenvalues of (default mixing * dielectric matrix)
  average eigenvalue GAMMA=   1.5597
  2.6606  2.5217  1.6026  1.6026  0.8641  0.9347  1.1455  1.1455

[...]

--------------------------------------- Iteration      8(  10)  ---------------------------------------

 eigenvalue-minimisations  :  1992
 total energy-change (2. order) :-0.1136868E-09  (-0.1925403E-10)
 number of electron      36.0000018 magnetization
 augmentation part       17.3966560 magnetization

 Free energy of the ion-electron system (eV)
  alpha Z        PSCENC =       196.01275011
  Ewald energy   TEWEN  =     -3164.64982261
  -Hartree energ DENC   =     -1165.56074756
  -exchange      EXHF   =         0.00000000
  -V(xc)+E(xc)   XCENC  =       129.95136136
  PAW double counting   =      4471.01356304    -5148.25851361
  entropy T*S    EENTRO =        -0.00000000
  eigenvalues    EBANDS =      -169.39616966
  atomic energy  EATOM  =      4826.58925392
  Solvation  Ediel_sol  =         0.00000000
  free energy    TOTEN  =       -24.29832500 eV

  energy without entropy =      -24.29832500  energy(sigma->0) =      -24.29832500

 average (electrostatic) potential at core
  the test charge radii are     1.0314  0.7089
  (the norm of the test charge is              1.0000)
       1 -63.5759       2 -63.5759       3 -62.1514       4 -62.1514

 E-fermi :   5.7067     XC(G=0): -11.6258     alpha+bet :-13.2930

 Fermi energy:         5.7066683139

[...]

 k-point    76 :       0.3333    0.3333    0.4286
  band No.  band energies     occupation
      1      -9.6255      2.00000
      2      -9.6255      2.00000
      3      -8.0806      2.00000
      4      -8.0633      2.00000
      5      -8.0633      2.00000
      6      -8.0223      2.00000
      7      -7.9155      2.00000
      8      -7.9153      2.00000
      9      -7.8949      2.00000
     10      -7.8949      2.00000
     11      -6.1796      2.00000
     12      -6.1796      2.00000
     13      -0.8632      2.00000
     14      -0.8632      2.00000
     15       0.8249      2.00000
     16       1.3640      2.00000
     17       3.7068      2.00000
     18       3.7068      2.00000
     19      11.6682      0.00000
     20      11.6682      0.00000
     21      12.1631      0.00000
     22      12.8788      0.00000
     23      14.2297      0.00000
     24      14.2297      0.00000

 soft charge-density along one line, spin component           1
         0         1         2         3         4         5         6         7         8         9
 total charge-density along one line

------------------------ aborting loop because EDIFF is reached ----------------------------------------

[...]

  FORCE on cell =-STRESS in cart. coord.  units (eV):
  Direction    XX          YY          ZZ          XY          YZ          ZX
  Alpha Z   196.01275   196.01275   196.01275
  Ewald   -1064.51436 -1064.51436 -1035.62327     0.00000    -0.00000    -0.00000
  Hartree   380.61381   380.61381   404.33314    -0.00000    -0.00000    -0.00000
  E(xc)    -201.04290  -201.04283  -201.02612     0.00007     0.00001     0.00000
  Local     121.83477   121.83220    69.06358    -0.00223    -0.00025    -0.00014
  n-local    -4.80788    -5.31258    -5.48927     1.65682     0.07195     0.17583
  augment   247.55975   247.56140   247.68361     0.00142     0.00001     0.00001
  Kinetic   321.23609   327.93889   325.04978    -7.10882    -0.96656    -1.38133
  Fock        0.00000     0.00000     0.00000     0.00000     0.00000     0.00000
  Total      -0.00935    -0.00935     0.00420     0.00000     0.00000     0.00000
  in kB      -0.32504    -0.32504     0.14621     0.00000     0.00000     0.00000

 VOLUME and BASIS-vectors are now :
  energy-cutoff  :      400.00
  volume of cell :       46.07
      direct lattice vectors                 reciprocal lattice vectors
     3.196921834  0.000000000  0.000000000     0.312800892  0.180595679 -0.000000000
    -1.598460917  2.768615522 -0.000000000     0.000000000  0.361191358 -0.000000000
     0.000000000  0.000000000  5.205169397    -0.000000000 -0.000000000  0.192116706

  length of vectors
     3.196921834  3.196921834  5.205169397     0.361191358  0.361191358  0.192116706

 FORCES acting on ions
    electron-ion (+dipol)            ewald-force                    non-local-force                 convergence-correction
   -.802E-04 -.732E-04 -.374E+01   0.831E-07 -.454E-07 0.372E+01   -.498E-16 0.793E-17 0.119E-01   -.264E-09 0.137E-09 -.298E-04
   -.233E-04 -.106E-03 -.374E+01   -.831E-07 0.454E-07 0.372E+01   0.142E-16 -.106E-16 0.119E-01   0.250E-09 -.160E-09 -.298E-04
   -.246E-04 0.222E-04 0.349E+01   0.748E-07 -.410E-07 -.372E+01   0.191E-17 -.249E-17 0.241E+00   -.421E-10 0.237E-10 0.513E-05
   0.314E-04 -.101E-04 0.349E+01   -.748E-07 0.410E-07 -.372E+01   -.484E-17 0.546E-17 0.241E+00   0.415E-10 -.246E-10 0.513E-05
   -.967E-04 -.167E-03 -.499E+00   -.841E-14 0.646E-14 0.178E-14   -.385E-16 0.345E-18 0.505E+00   -.141E-10 -.244E-10 -.494E-04

 POSITION                                       TOTAL-FORCE (eV/Angst)
     -0.00000      1.84574     -0.00449        -0.000000      0.000000     -0.000246
      1.59846      0.92287      2.59809         0.000000     -0.000000     -0.000246
     -0.00000      1.84574      1.95643        -0.000000      0.000000      0.000246
      1.59846      0.92287      4.55901         0.000000     -0.000000      0.000246
    total drift:                               -0.000097     -0.000167      0.005666

  FREE ENERGIE OF THE ION-ELECTRON SYSTEM (eV)
  free  energy   TOTEN  =       -24.29832500 eV

  energy  without entropy=      -24.29832500  energy(sigma->0) =      -24.29832500

 d Force =-0.7131634E-06[ 0.224E-06,-0.165E-05]  d Energy = 0.1033514E-04-0.110E-04
 d Force =-0.3516708E-02[-0.339E-02,-0.365E-02]  d Ewald  =-0.2994696E+00 0.296E+00

 stress matrix after NEB project (eV)
     -0.00935      0.00000      0.00000
      0.00000     -0.00935      0.00000
      0.00000      0.00000      0.00420
  FORCES: max atom, RMS     0.000246    0.000246
  FORCE total and by dimension    0.000493    0.000246
  Stress total and by dimension    0.013871    0.009347
 Conjugate gradient step on ions:
 trial-energy change:   -0.000010  1 .order   -0.000011   -0.000029    0.000008
  (g-gl).g = 0.311E-04      g.g   = 0.309E-04  gl.gl    = 0.989E-04
 g(Force)  = 0.636E-06   g(Stress)= 0.302E-04 ortho     =-0.492E-07
 gamma     =   0.31471
 trial     =   0.93552
 opt step  =   0.73253  (harmonic =   0.73955) maximal distance =0.00017800
 next E    =   -24.298326   (d E  =  -0.00001)

 reached required accuracy - stopping structural energy minimisation

 total charge

# of ion       s       p       d       tot
    1        0.786   0.888  10.175  11.849
    2        0.786   0.888  10.175  11.849
    3        1.239   2.463   0.000   3.701
    4        1.239   2.463   0.000   3.701
tot          4.049   6.701  20.350  31.100