 vasp.6.3.1 04May22 (build Jun 07 2022 20:23:04) complex

 executed on             LinuxIFC date 2024.03.07  02:51:41

 INCAR:
   SYSTEM = GaN
   ISTART = 0
   ICHARG = 2
   ENCUT = 430
   ISMEAR = 0
   SIGMA = 0.05
   EDIFF = 1E-9

 POTCAR:    PAW_PBE Ga_d 06Jul2010
 POTCAR:    PAW_PBE N 08Apr2002
|           W    W    AA    RRRRR   N    N  II  N    N   GGGG   !!!           |
|           W    W   A  A   R    R  NN   N  II  NN   N  G    G  !!!           |
|           W    W  A    A  R    R  N N  N  II  N N  N  G       !!!           |
|           W WW W  AAAAAA  RRRRR   N  N N  II  N  N N  G  GGG   !            |
|           WW  WW  A    A  R   R   N   NN  II  N   NN  G    G                |
|           W    W  A    A  R    R  N    N  II  N    N   GGGG   !!!           |
|     For optimal performance we recommend to set                             |
|       NCORE = 2 up to number-of-cores-per-socket                            |
|     This setting can greatly improve the performance of VASP for DFT.       |
|     The default, NCORE=1 might be grossly inefficient on modern             |
|     multi-core architectures or massively parallel machines. Do your        |
|     Unfortunately you need to use the default for GW and RPA                |
|     calculations (for HF NCORE is supported but not extensively tested      |
|     yet).                                                                   |

   TITEL  = PAW_PBE Ga_d 06Jul2010
   POMASS =   69.723; ZVAL   =   13.000    mass and valenz
   ENMAX  =  282.691; ENMIN  =  212.018 eV

   TITEL  = PAW_PBE N 08Apr2002
   POMASS =   14.001; ZVAL   =    5.000    mass and valenz
   ENMAX  =  400.000; ENMIN  =  300.000 eV

  PAW_PBE Ga_d 06Jul2010                :
  PAW_PBE N 08Apr2002                   :

 POSCAR: Ga N
  positions in direct lattice
  velocities in cartesian coordinates
 exchange correlation table for  LEXCH =        8
   RHO(1)=    0.500       N(1)  =     2000
   RHO(2)=  100.500       N(2)  =     4000

 VTST: version 4.2, (08/11/21)

 CHAIN: initializing optimizer

 OPT: Using VASP Dynamics algorithm
 CHAIN: Read ICHAIN            0

 POSCAR: Ga N
  positions in direct lattice
  velocities in cartesian coordinates

 ion  position               nearest neighbor table
   1  0.333  0.667  0.999-   4 1.96   4 1.96   4 1.96   3 1.97
   2  0.667  0.333  0.499-   3 1.96   3 1.96   3 1.96   4 1.97
   3  0.333  0.667  0.376-   2 1.96   2 1.96   2 1.96   1 1.97
   4  0.667  0.333  0.876-   1 1.96   1 1.96   1 1.96   2 1.97

  LATTYP: Found a hexagonal cell.
 ALAT       =     3.2075065144
 C/A-ratio  =     1.6285635599

  Lattice vectors:

 A1 = (   3.2075065144,   0.0000000000,   0.0000000000)
 A2 = (  -1.6037532572,   2.7777821242,   0.0000000000)
 A3 = (   0.0000000000,   0.0000000000,   5.2236282274)

Analysis of symmetry for initial positions (statically):
 Subroutine PRICEL returns:
 Original cell was already a primitive cell.

 Routine SETGRP: Setting up the symmetry group for a
 hexagonal supercell.

 Subroutine GETGRP returns: Found 12 space group operations
 (whereof  6 operations were pure point group operations)
 out of a pool of 24 trial point group operations.

The static configuration has the point symmetry C_3v.
 The point group associated with its full space group is C_6v.

Analysis of symmetry for dynamics (positions and initial velocities):
 Subroutine PRICEL returns:
 Original cell was already a primitive cell.

 Routine SETGRP: Setting up the symmetry group for a
 hexagonal supercell.

 Subroutine GETGRP returns: Found 12 space group operations
 (whereof  6 operations were pure point group operations)
 out of a pool of 24 trial point group operations.

The dynamic configuration has the point symmetry C_3v.
 The point group associated with its full space group is C_6v.

 Subroutine INISYM returns: Found 12 space group operations
 (whereof  6 operations are pure point group operations),
 and found     1 'primitive' translations

                                     Primitive cell

  volume of cell :      46.5412

  direct lattice vectors                    reciprocal lattice vectors
     3.207506514  0.000000000  0.000000000     0.311768658  0.179999718  0.000000000
    -1.603753257  2.777782124  0.000000000     0.000000000  0.359999437  0.000000000
     0.000000000  0.000000000  5.223628227     0.000000000  0.000000000  0.191437820

  length of vectors
     3.207506514  3.207506514  5.223628227     0.359999437  0.359999437  0.191437820

  position of ions in fractional coordinates (direct lattice)
     0.333333343  0.666666687  0.999139314
     0.666666627  0.333333313  0.499139314
     0.333333343  0.666666687  0.375860686
     0.666666627  0.333333313  0.875860686

  ion indices of the primitive-cell ions
   primitive index   ion index
                 1           1
                 2           2
                 3           3
                 4           4

 KPOINTS: K-Points

Automatic generation of k-mesh.
 Grid dimensions read from file:
 generate k-points for:   11   11   11

 Generating k-lattice:

  Cartesian coordinates                     Fractional coordinates (reciprocal lattice)
     0.028342605  0.016363611  0.000000000     0.090909091 -0.000000000  0.000000000
     0.000000000  0.032727222  0.000000000     0.000000000  0.090909091  0.000000000
     0.000000000  0.000000000  0.017403438     0.000000000  0.000000000  0.090909091

  Length of vectors
     0.032727222  0.032727222  0.017403438

  Shift w.r.t. Gamma in fractional coordinates (k-lattice)
     0.000000000  0.000000000  0.000000000

 Subroutine IBZKPT returns following result:

 Found     96 irreducible k-points:

 Following reciprocal coordinates:
            Coordinates               Weight
  0.000000  0.000000  0.000000      1.000000
  0.090909  0.000000  0.000000      6.000000
  0.181818 -0.000000  0.000000      6.000000
  0.272727  0.000000  0.000000      6.000000
  0.363636 -0.000000  0.000000      6.000000
  0.454545 -0.000000  0.000000      6.000000
  0.090909  0.090909  0.000000      6.000000
  0.181818  0.090909  0.000000     12.000000
  0.272727  0.090909  0.000000     12.000000
  0.363636  0.090909  0.000000     12.000000
  0.454545  0.090909  0.000000      6.000000
  0.181818  0.181818  0.000000      6.000000
  0.272727  0.181818  0.000000     12.000000
  0.363636  0.181818  0.000000     12.000000
  0.272727  0.272727  0.000000      6.000000
  0.363636  0.272727  0.000000      6.000000
  0.000000  0.000000  0.090909      2.000000
  0.090909  0.000000  0.090909     12.000000
  0.181818 -0.000000  0.090909     12.000000
  0.272727  0.000000  0.090909     12.000000
  0.363636 -0.000000  0.090909     12.000000
  0.454545 -0.000000  0.090909     12.000000
  0.090909  0.090909  0.090909     12.000000
  0.181818  0.090909  0.090909     24.000000
  0.272727  0.090909  0.090909     24.000000
  0.363636  0.090909  0.090909     24.000000
  0.454545  0.090909  0.090909     12.000000
  0.181818  0.181818  0.090909     12.000000
  0.272727  0.181818  0.090909     24.000000
  0.363636  0.181818  0.090909     24.000000
  0.272727  0.272727  0.090909     12.000000
  0.363636  0.272727  0.090909     12.000000
  0.000000  0.000000  0.181818      2.000000
  0.090909  0.000000  0.181818     12.000000
  0.181818 -0.000000  0.181818     12.000000
  0.272727  0.000000  0.181818     12.000000
  0.363636 -0.000000  0.181818     12.000000
  0.454545 -0.000000  0.181818     12.000000
  0.090909  0.090909  0.181818     12.000000
  0.181818  0.090909  0.181818     24.000000
  0.272727  0.090909  0.181818     24.000000
  0.363636  0.090909  0.181818     24.000000
  0.454545  0.090909  0.181818     12.000000
  0.181818  0.181818  0.181818     12.000000
  0.272727  0.181818  0.181818     24.000000
  0.363636  0.181818  0.181818     24.000000
  0.272727  0.272727  0.181818     12.000000
  0.363636  0.272727  0.181818     12.000000
  0.000000  0.000000  0.272727      2.000000
  0.090909  0.000000  0.272727     12.000000
  0.181818 -0.000000  0.272727     12.000000
  0.272727  0.000000  0.272727     12.000000
  0.363636 -0.000000  0.272727     12.000000
  0.454545 -0.000000  0.272727     12.000000
  0.090909  0.090909  0.272727     12.000000
  0.181818  0.090909  0.272727     24.000000
  0.272727  0.090909  0.272727     24.000000
  0.363636  0.090909  0.272727     24.000000
  0.454545  0.090909  0.272727     12.000000
  0.181818  0.181818  0.272727     12.000000
[...]
  0.090909  0.000000  0.454545     12.000000
  0.181818 -0.000000  0.454545     12.000000
  0.272727  0.000000  0.454545     12.000000
  0.363636 -0.000000  0.454545     12.000000
  0.454545 -0.000000  0.454545     12.000000
  0.090909  0.090909  0.454545     12.000000
  0.181818  0.090909  0.454545     24.000000
  0.272727  0.090909  0.454545     24.000000
  0.363636  0.090909  0.454545     24.000000
  0.454545  0.090909  0.454545     12.000000
  0.181818  0.181818  0.454545     12.000000
  0.272727  0.181818  0.454545     24.000000
  0.363636  0.181818  0.454545     24.000000
  0.272727  0.272727  0.454545     12.000000
  0.363636  0.272727  0.454545     12.000000

 Following cartesian coordinates:
            Coordinates               Weight
  0.000000  0.000000  0.000000      1.000000
  0.028343  0.016364  0.000000      6.000000
  0.056685  0.032727  0.000000      6.000000
  0.085028  0.049091  0.000000      6.000000
  0.113370  0.065454  0.000000      6.000000
  0.141713  0.081818  0.000000      6.000000
  0.028343  0.049091  0.000000      6.000000
  0.056685  0.065454  0.000000     12.000000
  0.085028  0.081818  0.000000     12.000000
  0.113370  0.098182  0.000000     12.000000
  0.141713  0.114545  0.000000      6.000000
  0.056685  0.098182  0.000000      6.000000
  0.085028  0.114545  0.000000     12.000000
  0.113370  0.130909  0.000000     12.000000
  0.085028  0.147272  0.000000      6.000000
  0.113370  0.163636  0.000000      6.000000
  0.000000  0.000000  0.017403      2.000000
  0.028343  0.016364  0.017403     12.000000
  0.056685  0.032727  0.017403     12.000000
  0.085028  0.049091  0.017403     12.000000
  0.113370  0.065454  0.017403     12.000000
  0.141713  0.081818  0.017403     12.000000
  0.028343  0.049091  0.017403     12.000000
  0.056685  0.065454  0.017403     24.000000
  0.085028  0.081818  0.017403     24.000000
  0.113370  0.098182  0.017403     24.000000
  0.141713  0.114545  0.017403     12.000000
  0.056685  0.098182  0.017403     12.000000
  0.085028  0.114545  0.017403     24.000000
  0.113370  0.130909  0.017403     24.000000
  0.085028  0.147272  0.017403     12.000000
  0.113370  0.163636  0.017403     12.000000
  0.000000  0.000000  0.034807      2.000000
  0.028343  0.016364  0.034807     12.000000
  0.056685  0.032727  0.034807     12.000000
  0.085028  0.049091  0.034807     12.000000
  0.113370  0.065454  0.034807     12.000000
  0.141713  0.081818  0.034807     12.000000
  0.028343  0.049091  0.034807     12.000000
  0.056685  0.065454  0.034807     24.000000
  0.085028  0.081818  0.034807     24.000000
  0.113370  0.098182  0.034807     24.000000
  0.141713  0.114545  0.034807     12.000000
  0.056685  0.098182  0.034807     12.000000
[...]
   0.09090909  0.00000000  0.27272727       0.009
   0.18181818 -0.00000000  0.27272727       0.009
   0.27272727  0.00000000  0.27272727       0.009
   0.36363636 -0.00000000  0.27272727       0.009
   0.45454545 -0.00000000  0.27272727       0.009
   0.09090909  0.09090909  0.27272727       0.009
   0.18181818  0.09090909  0.27272727       0.018
   0.27272727  0.09090909  0.27272727       0.018
   0.36363636  0.09090909  0.27272727       0.018
   0.45454545  0.09090909  0.27272727       0.009
   0.18181818  0.18181818  0.27272727       0.009
[...]
   0.09090909  0.00000000  0.45454545       0.009
   0.18181818 -0.00000000  0.45454545       0.009
   0.27272727  0.00000000  0.45454545       0.009
   0.36363636 -0.00000000  0.45454545       0.009
   0.45454545 -0.00000000  0.45454545       0.009
   0.09090909  0.09090909  0.45454545       0.009
   0.18181818  0.09090909  0.45454545       0.018
   0.27272727  0.09090909  0.45454545       0.018
   0.36363636  0.09090909  0.45454545       0.018
   0.45454545  0.09090909  0.45454545       0.009
   0.18181818  0.18181818  0.45454545       0.009
   0.27272727  0.18181818  0.45454545       0.018
   0.36363636  0.18181818  0.45454545       0.018
   0.27272727  0.27272727  0.45454545       0.009
   0.36363636  0.27272727  0.45454545       0.009

 position of ions in fractional coordinates (direct lattice)
   0.33333334  0.66666669  0.99913931
   0.66666663  0.33333331  0.49913931
   0.33333334  0.66666669  0.37586069
   0.66666663  0.33333331  0.87586069

 position of ions in cartesian coordinates  (Angst):
  -0.00000000  1.85185481  5.21913233
   1.60375316  0.92592732  2.60731821
  -0.00000000  1.85185481  1.96335649
   1.60375316  0.92592732  4.57517060

 k-point   1 :   0.0000 0.0000 0.0000  plane waves:     941
 k-point   2 :   0.0909 0.0000 0.0000  plane waves:     951
 k-point   3 :   0.1818-0.0000 0.0000  plane waves:     955
 k-point   4 :   0.2727 0.0000 0.0000  plane waves:     957
 k-point   5 :   0.3636-0.0000 0.0000  plane waves:     942
 k-point   6 :   0.4545-0.0000 0.0000  plane waves:     928
 k-point   7 :   0.0909 0.0909 0.0000  plane waves:     943
 k-point   8 :   0.1818 0.0909 0.0000  plane waves:     955
 k-point   9 :   0.2727 0.0909 0.0000  plane waves:     945
 k-point  10 :   0.3636 0.0909 0.0000  plane waves:     942
 k-point  11 :   0.4545 0.0909 0.0000  plane waves:     936
 k-point  12 :   0.1818 0.1818 0.0000  plane waves:     949
 k-point  13 :   0.2727 0.1818 0.0000  plane waves:     940
 k-point  14 :   0.3636 0.1818 0.0000  plane waves:     935
 k-point  15 :   0.2727 0.2727 0.0000  plane waves:     935
 k-point  16 :   0.3636 0.2727 0.0000  plane waves:     932
 k-point  17 :   0.0000 0.0000 0.0909  plane waves:     965
 k-point  18 :   0.0909 0.0000 0.0909  plane waves:     955
 k-point  19 :   0.1818-0.0000 0.0909  plane waves:     951
 k-point  20 :   0.2727 0.0000 0.0909  plane waves:     953
 k-point  21 :   0.3636-0.0000 0.0909  plane waves:     942
 k-point  22 :   0.4545-0.0000 0.0909  plane waves:     927
 k-point  23 :   0.0909 0.0909 0.0909  plane waves:     950
 k-point  24 :   0.1818 0.0909 0.0909  plane waves:     949
 k-point  25 :   0.2727 0.0909 0.0909  plane waves:     942
 k-point  26 :   0.3636 0.0909 0.0909  plane waves:     937
 k-point  27 :   0.4545 0.0909 0.0909  plane waves:     929
 k-point  28 :   0.1818 0.1818 0.0909  plane waves:     944
 k-point  29 :   0.2727 0.1818 0.0909  plane waves:     937
 k-point  30 :   0.3636 0.1818 0.0909  plane waves:     937
 k-point  31 :   0.2727 0.2727 0.0909  plane waves:     935
 k-point  32 :   0.3636 0.2727 0.0909  plane waves:     936
 k-point  33 :   0.0000 0.0000 0.1818  plane waves:     966
 k-point  34 :   0.0909 0.0000 0.1818  plane waves:     960
 k-point  35 :   0.1818-0.0000 0.1818  plane waves:     953
 k-point  36 :   0.2727 0.0000 0.1818  plane waves:     947
 k-point  37 :   0.3636-0.0000 0.1818  plane waves:     935
 k-point  38 :   0.4545-0.0000 0.1818  plane waves:     927
 k-point  39 :   0.0909 0.0909 0.1818  plane waves:     943
 k-point  40 :   0.1818 0.0909 0.1818  plane waves:     946
 k-point  41 :   0.2727 0.0909 0.1818  plane waves:     945
 k-point  42 :   0.3636 0.0909 0.1818  plane waves:     932
 k-point  43 :   0.4545 0.0909 0.1818  plane waves:     933
 k-point  44 :   0.1818 0.1818 0.1818  plane waves:     944
 k-point  45 :   0.2727 0.1818 0.1818  plane waves:     939
 k-point  46 :   0.3636 0.1818 0.1818  plane waves:     938
 k-point  47 :   0.2727 0.2727 0.1818  plane waves:     937
 k-point  48 :   0.3636 0.2727 0.1818  plane waves:     938
 k-point  49 :   0.0000 0.0000 0.2727  plane waves:     966
 k-point  50 :   0.0909 0.0000 0.2727  plane waves:     956
 k-point  51 :   0.1818-0.0000 0.2727  plane waves:     949
 k-point  52 :   0.2727 0.0000 0.2727  plane waves:     943
 k-point  53 :   0.3636-0.0000 0.2727  plane waves:     938
 k-point  54 :   0.4545-0.0000 0.2727  plane waves:     938
 k-point  55 :   0.0909 0.0909 0.2727  plane waves:     948
 k-point  56 :   0.1818 0.0909 0.2727  plane waves:     943
 k-point  57 :   0.2727 0.0909 0.2727  plane waves:     940
 k-point  58 :   0.3636 0.0909 0.2727  plane waves:     934
 k-point  59 :   0.4545 0.0909 0.2727  plane waves:     935
 k-point  60 :   0.1818 0.1818 0.2727  plane waves:     942
[...]
 k-point  82 :   0.0909 0.0000 0.4545  plane waves:     962
 k-point  83 :   0.1818-0.0000 0.4545  plane waves:     943
 k-point  84 :   0.2727 0.0000 0.4545  plane waves:     941
 k-point  85 :   0.3636-0.0000 0.4545  plane waves:     930
 k-point  86 :   0.4545-0.0000 0.4545  plane waves:     939
 k-point  87 :   0.0909 0.0909 0.4545  plane waves:     956
 k-point  88 :   0.1818 0.0909 0.4545  plane waves:     944
 k-point  89 :   0.2727 0.0909 0.4545  plane waves:     945
 k-point  90 :   0.3636 0.0909 0.4545  plane waves:     940
 k-point  91 :   0.4545 0.0909 0.4545  plane waves:     932
 k-point  92 :   0.1818 0.1818 0.4545  plane waves:     946
 k-point  93 :   0.2727 0.1818 0.4545  plane waves:     942
 k-point  94 :   0.3636 0.1818 0.4545  plane waves:     946
 k-point  95 :   0.2727 0.2727 0.4545  plane waves:     935
 k-point  96 :   0.3636 0.2727 0.4545  plane waves:     942

 maximum and minimum number of plane-waves per node :       966      927

 maximum number of plane-waves:       966
 maximum index in each direction:
   IXMAX=    5   IYMAX=    5   IZMAX=    8
   IXMIN=   -5   IYMIN=   -5   IZMIN=   -9

 serial   3D FFT for wavefunctions
 parallel 3D FFT for charge:
    minimum data exchange during FFTs selected (reduces bandwidth)

 Broyden mixing: mesh for mixing (old mesh)
   NGX = 11   NGY = 11   NGZ = 17
  (NGX  = 32   NGY  = 32   NGZ  = 56)
  gives a total of   2057 points

 initial charge density was supplied:
 charge density of overlapping atoms calculated
 number of electron      36.0000000 magnetization
 keeping initial charge density in first step

 Maximum index for augmentation-charges           69 (set IRDMAX)

 First call to EWALD:  gamma=   0.493
 Maximum number of real-space cells 3x 3x 2
 Maximum number of reciprocal cells 3x 3x 4

--------------------------------------- Iteration      1(   1)  ---------------------------------------

 eigenvalue-minimisations  :  6144
 total energy-change (2. order) : 0.4431830E+02  (-0.1949500E+04)
 number of electron      36.0000000 magnetization
 augmentation part       36.0000000 magnetization

 Free energy of the ion-electron system (eV)
  alpha Z        PSCENC =       194.03312172
  Ewald energy   TEWEN  =     -3153.96459923
  -Hartree energ DENC   =     -1166.19767918
  -exchange      EXHF   =         0.00000000
  -V(xc)+E(xc)   XCENC  =       128.60817749
  PAW double counting   =      3616.17691320    -4285.66495278
  entropy T*S    EENTRO =        -0.00050894
  eigenvalues    EBANDS =      -115.34481807
  atomic energy  EATOM  =      4826.67264151
  Solvation  Ediel_sol  =         0.00000000
  free energy    TOTEN  =        44.31829572 eV

  energy without entropy =       44.31880465  energy(sigma->0) =       44.31855019

[...]

 eigenvalue-minimisations  :  7424
 total energy-change (2. order) :-0.7151935E+02  (-0.7133543E+02)
 number of electron      36.0000000 magnetization
 augmentation part       36.0000000 magnetization

[...]

 Broyden mixing:
  rms(total) = 0.10828E+01    rms(broyden)= 0.10825E+01
  rms(prec ) = 0.23200E+01
  weight for this iteration     100.00

[...]

 eigenvalues of (default mixing * dielectric matrix)
  average eigenvalue GAMMA=   0.8566
  0.8566

[...]

 Broyden mixing:
  rms(total) = 0.11813E-02    rms(broyden)= 0.11545E-02
  rms(prec ) = 0.12167E-02
  weight for this iteration     100.00

[...]

 eigenvalue-minimisations  :  9664
 total energy-change (2. order) : 0.4096973E-06  (-0.5580925E-07)
 number of electron      36.0000028 magnetization
 augmentation part       17.3937215 magnetization

 Broyden mixing:
  rms(total) = 0.25222E-03    rms(broyden)= 0.33962E-04
  rms(prec ) = 0.41983E-04
  weight for this iteration     100.00
  WARNING: grid for Broyden might be to small

[...]

 Broyden mixing:
  rms(total) = 0.24992E-03    rms(broyden)= 0.14118E-05
  rms(prec ) = 0.18318E-05
  weight for this iteration     100.00
  WARNING: grid for Broyden might be to small

 eigenvalues of (default mixing * dielectric matrix)
  average eigenvalue GAMMA=   1.7663
  3.1636  2.8069  2.5992  2.2996  2.2996  1.3202  0.9792  0.9792  0.9812  0.9812
  1.0193

[...]

--------------------------------------- Iteration      1(  17)  ---------------------------------------

 eigenvalue-minimisations  :  3776
 total energy-change (2. order) :-0.1209628E-09  (-0.5691241E-12)
 number of electron      36.0000028 magnetization
 augmentation part       17.3937159 magnetization

 Free energy of the ion-electron system (eV)
  alpha Z        PSCENC =       194.03312172
  Ewald energy   TEWEN  =     -3153.96459923
  -Hartree energ DENC   =     -1171.04938746
  -exchange      EXHF   =         0.00000000
  -V(xc)+E(xc)   XCENC  =       129.83266178
  PAW double counting   =      4463.96711637    -5140.93698851
  entropy T*S    EENTRO =        -0.00000000
  eigenvalues    EBANDS =      -172.88007848
  atomic energy  EATOM  =      4826.67264151
  Solvation  Ediel_sol  =         0.00000000
  free energy    TOTEN  =       -24.32551229 eV

  energy without entropy =      -24.32551229  energy(sigma->0) =      -24.32551229

 average (electrostatic) potential at core
  the test charge radii are     1.0314  0.7089
  (the norm of the test charge is              1.0000)
       1 -63.6941       2 -63.6941       3 -62.2408       4 -62.2408

 E-fermi :   5.3335     XC(G=0): -11.5713     alpha+bet :-13.1588

 Fermi energy:         5.3335208625

 k-point     1 :       0.0000    0.0000    0.0000
  band No.  band energies     occupation
      1     -10.7074      2.00000
      2      -9.8467      2.00000
      3      -8.3063      2.00000
      4      -8.2918      2.00000
      5      -8.2918      2.00000
      6      -8.2341      2.00000
      7      -8.2341      2.00000
      8      -8.0550      2.00000
      9      -8.0550      2.00000
     10      -7.9617      2.00000
     11      -7.9617      2.00000
     12      -6.7258      2.00000
     13      -1.8122      2.00000
     14       4.1085      2.00000
     15       4.1092      2.00000
     16       5.0844      2.00000
     17       5.1213      2.00000
     18       5.1220      2.00000
     19       6.9034      0.00000
     20       9.2455      0.00000
     21      14.2196      0.00000
     22      14.8986      0.00000
     23      14.8987      0.00000
     24      15.7105      0.00000
     25      16.6797      0.00000
     26      16.6799      0.00000
     27      19.6227      0.00000
     28      20.7183      0.00000
     29      20.7184      0.00000
     30      22.9391      0.00000
     31      22.9391      0.00000
     32      23.0837      0.00000

[...]

 k-point    96 :       0.3636    0.2727    0.4545
  band No.  band energies     occupation
      1      -9.6938      2.00000
      2      -9.6877      2.00000
      3      -8.1893      2.00000
      4      -8.1807      2.00000
      5      -8.1744      2.00000
      6      -8.1433      2.00000
      7      -8.0391      2.00000
      8      -8.0367      2.00000
      9      -8.0053      2.00000
     10      -8.0037      2.00000
     11      -6.3435      2.00000
     12      -6.3073      2.00000
     13      -1.0094      2.00000
     14      -0.9517      2.00000
     15       1.0154      2.00000
     16       1.3447      2.00000
     17       3.5821      2.00000
     18       3.6893      2.00000
     19      11.1335      0.00000
     20      11.3337      0.00000
     21      12.4457      0.00000
     22      12.7625      0.00000
     23      13.9763      0.00000
     24      13.9894      0.00000
     25      18.2853      0.00000
     26      18.4966      0.00000
     27      19.4952      0.00000
     28      19.7792      0.00000
     29      23.0244      0.00000
     30      23.2674      0.00000
     31      27.1539      0.00000
     32      27.1598      0.00000

 soft charge-density along one line, spin component           1
         0         1         2         3         4         5         6         7         8         9
 total charge-density along one line

------------------------ aborting loop because EDIFF is reached ----------------------------------------

  FORCE on cell =-STRESS in cart. coord.  units (eV):
  Direction    XX          YY          ZZ          XY          YZ          ZX
  Alpha Z   194.03312   194.03312   194.03312
  Ewald   -1060.75180 -1060.75160 -1032.46336    -0.00008     0.00000     0.00000
  Hartree   382.55120   382.55125   405.94695    -0.00002    -0.00000     0.00001
  E(xc)    -200.93648  -200.93639  -200.91988     0.00008     0.00001     0.00000
  Local     118.51671   118.51353    66.67469    -0.00249    -0.00032    -0.00020
  n-local    -5.08219    -5.61759    -5.77540     1.65734     0.07108     0.17486
  augment   247.62788   247.62954   247.74959     0.00145     0.00002     0.00001
  Kinetic   321.06416   327.78076   324.87949    -7.24627    -1.00270    -1.42959
  Fock        0.00000     0.00000     0.00000     0.00000     0.00000     0.00000
  Total       0.11261     0.11261     0.12520    -0.00000     0.00000     0.00000
  in kB       3.87676     3.87676     4.30994    -0.00000     0.00000     0.00000

 VOLUME and BASIS-vectors are now :
  energy-cutoff  :      430.00
  volume of cell :       46.54
      direct lattice vectors                 reciprocal lattice vectors
     3.207506514  0.000000000  0.000000000     0.311768658  0.179999718  0.000000000
    -1.603753257  2.777782124  0.000000000     0.000000000  0.359999437  0.000000000
     0.000000000  0.000000000  5.223628227     0.000000000  0.000000000  0.191437820

  length of vectors
     3.207506514  3.207506514  5.223628227     0.359999437  0.359999437  0.191437820

 FORCES acting on ions
    electron-ion (+dipol)            ewald-force                    non-local-force                 convergence-correction
   -.933E-04 -.892E-04 -.384E+01   -.239E-04 -.291E-04 0.381E+01   0.114E-15 -.807E-17 0.282E-01   -.405E-10 -.252E-10 0.601E-06
   -.178E-04 -.123E-03 -.384E+01   0.239E-04 0.291E-04 0.381E+01   -.400E-16 -.622E-17 0.282E-01   0.533E-10 0.238E-10 0.601E-06
   -.384E-04 0.108E-04 0.357E+01   -.215E-04 -.262E-04 -.381E+01   0.413E-17 -.454E-17 0.247E+00   -.175E-10 -.437E-11 -.224E-05
   0.108E-03 -.658E-05 0.357E+01   0.215E-04 0.262E-04 -.381E+01   -.416E-17 0.405E-17 0.247E+00   0.261E-10 0.446E-11 -.224E-05
   -.413E-04 -.208E-03 -.545E+00   -.523E-14 0.701E-14 0.888E-15   0.736E-16 -.148E-16 0.551E+00   0.213E-10 -.131E-11 -.328E-05

 POSITION                                       TOTAL-FORCE (eV/Angst)
     -0.00000      1.85185      5.21913         0.000000      0.000000      0.000019
      1.60375      0.92593      2.60732        -0.000000      0.000000      0.000019
     -0.00000      1.85185      1.96336        -0.000000     -0.000000     -0.000019
      1.60375      0.92593      4.57517         0.000000     -0.000000     -0.000019
    total drift:                               -0.000041     -0.000208      0.006296

  FREE ENERGIE OF THE ION-ELECTRON SYSTEM (eV)
  free  energy   TOTEN  =       -24.32551229 eV

  energy  without entropy=      -24.32551229  energy(sigma->0) =      -24.32551229

 stress matrix after NEB project (eV)
      0.11261      0.00000      0.00000
     -0.00000      0.11261     -0.00000
      0.00000      0.00000      0.12520
  FORCES: max atom, RMS     0.000019    0.000019
  FORCE total and by dimension    0.000038    0.000019
  Stress total and by dimension    0.202581    0.125198
 writing wavefunctions