 vasp.6.3.1 04May22 (build Jun 07 2022 20:23:04) complex

 executed on             LinuxIFC date 2024.04.20  16:34:42

 INCAR:
   ALGO = Normal
   PREC = Normal
   LREAL = False
   EDIFF = 1e-07
   ENCUT = 400.0
   LASPH = True
   NELM = 100
   ISIF = 3
   IBRION = 2
   EDIFFG = -0.005
   NSW = 20
   ISMEAR = -5
   SIGMA = 0.1
   LWAVE = False
   LCHARG = False
   LORBIT = 10
   KPAR = 4

 POTCAR:    PAW_PBE Si 05Jan2001
|           W    W    AA    RRRRR   N    N  II  N    N   GGGG   !!!           |
|           W    W   A  A   R    R  NN   N  II  NN   N  G    G  !!!           |
|           W    W  A    A  R    R  N N  N  II  N N  N  G       !!!           |
|           W WW W  AAAAAA  RRRRR   N  N N  II  N  N N  G  GGG   !            |
|           WW  WW  A    A  R   R   N   NN  II  N   NN  G    G                |
|           W    W  A    A  R    R  N    N  II  N    N   GGGG   !!!           |
|     For optimal performance we recommend to set                             |
|       NCORE = 2 up to number-of-cores-per-socket                            |
|     This setting can greatly improve the performance of VASP for DFT.       |
|     The default, NCORE=1 might be grossly inefficient on modern             |
|     multi-core architectures or massively parallel machines. Do your        |
|     Unfortunately you need to use the default for GW and RPA                |
|     calculations (for HF NCORE is supported but not extensively tested      |
|     yet).                                                                   |

   TITEL  = PAW_PBE Si 05Jan2001
   POMASS =   28.085; ZVAL   =    4.000    mass and valenz
   ENMAX  =  245.345; ENMIN  =  184.009 eV

  PAW_PBE Si 05Jan2001                  :

 POSCAR: Si2
  positions in direct lattice
 exchange correlation table for  LEXCH =        8
   RHO(1)=    0.500       N(1)  =     2000
   RHO(2)=  100.500       N(2)  =     4000

 VTST: version 4.2, (08/11/21)

 CHAIN: initializing optimizer

 OPT: Using VASP Conjugate-Gradient optimizer
 CHAIN: Read ICHAIN            0

 POSCAR: Si2
  positions in direct lattice

 ion  position               nearest neighbor table
   1  0.250  0.250  0.250-   2 2.36   2 2.36   2 2.36   2 2.36
   2  0.000  0.000  0.000-   1 2.36   1 2.36   1 2.36   1 2.36

  LATTYP: Found a face centered cubic cell.
 ALAT       =     5.4437023730

  Lattice vectors:

 A1 = (   0.0000000000,   2.7218511865,   2.7218511865)
 A2 = (   2.7218511865,   0.0000000000,   2.7218511865)
 A3 = (   2.7218511865,   2.7218511865,   0.0000000000)

Analysis of symmetry for initial positions (statically):
 Subroutine PRICEL returns:
 Original cell was already a primitive cell.

 Routine SETGRP: Setting up the symmetry group for a
 face centered cubic supercell.

 Subroutine GETGRP returns: Found 48 space group operations
 (whereof 24 operations were pure point group operations)
 out of a pool of 48 trial point group operations.

The static configuration has the point symmetry T_d .
 The point group associated with its full space group is O_h .

Analysis of symmetry for dynamics (positions and initial velocities):
 Subroutine PRICEL returns:
 Original cell was already a primitive cell.

 Routine SETGRP: Setting up the symmetry group for a
 face centered cubic supercell.

 Subroutine GETGRP returns: Found 48 space group operations
 (whereof 24 operations were pure point group operations)
 out of a pool of 48 trial point group operations.

The dynamic configuration has the point symmetry T_d .
 The point group associated with its full space group is O_h .

 Subroutine INISYM returns: Found 48 space group operations
 (whereof 24 operations are pure point group operations),
 and found     1 'primitive' translations

                                     Primitive cell

  volume of cell :      40.3295

  direct lattice vectors                    reciprocal lattice vectors
     0.000000000  2.721851186  2.721851186    -0.183698507  0.183698507  0.183698507
     2.721851186  0.000000000  2.721851186     0.183698507 -0.183698507  0.183698507
     2.721851186  2.721851186  0.000000000     0.183698507  0.183698507 -0.183698507

  length of vectors
     3.849278863  3.849278863  3.849278863     0.318175148  0.318175148  0.318175148

  position of ions in fractional coordinates (direct lattice)
     0.250000000  0.250000000  0.250000000
     0.000000000  0.000000000  0.000000000

  ion indices of the primitive-cell ions
   primitive index   ion index
                 1           1
                 2           2

 KPOINTS: Num irrep kpoints: 10

Automatic generation of k-mesh.
 Grid dimensions read from file:
 generate k-points for:    5    5    5

 Generating k-lattice:

  Cartesian coordinates                     Fractional coordinates (reciprocal lattice)
    -0.036739701  0.036739701  0.036739701     0.200000000  0.000000000 -0.000000000
     0.036739701 -0.036739701  0.036739701     0.000000000  0.200000000  0.000000000
     0.036739701  0.036739701 -0.036739701    -0.000000000 -0.000000000  0.200000000

  Length of vectors
     0.063635030  0.063635030  0.063635030

  Shift w.r.t. Gamma in fractional coordinates (k-lattice)
     0.000000000  0.000000000  0.000000000

 TETIRR: Found     24 inequivalent tetrahedra from      750

 Subroutine IBZKPT returns following result:

 Found     10 irreducible k-points:

 Following reciprocal coordinates:
            Coordinates               Weight
  0.000000  0.000000  0.000000      1.000000
  0.200000 -0.000000 -0.000000      8.000000
  0.400000 -0.000000 -0.000000      8.000000
  0.200000  0.200000 -0.000000      6.000000
  0.400000  0.200000 -0.000000     24.000000
 -0.400000  0.200000  0.000000     24.000000
 -0.200000  0.200000 -0.000000     12.000000
  0.400000  0.400000 -0.000000      6.000000
 -0.400000  0.400000 -0.000000     12.000000
 -0.400000  0.400000  0.200000     24.000000

 Following cartesian coordinates:
            Coordinates               Weight
  0.000000  0.000000  0.000000      1.000000
 -0.036740  0.036740  0.036740      8.000000
 -0.073479  0.073479  0.073479      8.000000
 -0.000000 -0.000000  0.073479      6.000000
 -0.036740  0.036740  0.110219     24.000000
  0.110219 -0.110219 -0.036740     24.000000
  0.073479 -0.073479  0.000000     12.000000
 -0.000000 -0.000000  0.146959      6.000000
  0.146959 -0.146959  0.000000     12.000000
  0.183699 -0.110219 -0.036740     24.000000

 SYSTEM =  unknown system
 POSCAR =  Si2

 Startparameter for this run:
   NWRITE =      2    write-flag & timer
   PREC   = normal    normal or accurate (medium, high low for compatibility)
   ISTART =      0    job   : 0-new  1-cont  2-samecut
   ICHARG =      2    charge: 1-file 2-atom 10-const
   ISPIN  =      1    spin polarized calculation?
   LNONCOLLINEAR =      F non collinear calculations
   LSORBIT =      F    spin-orbit coupling
   INIWAV =      1    electr: 0-lowe 1-rand  2-diag
   LASPH  =      T    aspherical Exc in radial PAW
 Electronic Relaxation 1
   ENCUT  =  400.0 eV  29.40 Ry    5.42 a.u.   6.28  6.28  6.28*2*pi/ulx,y,z
   ENINI  =  400.0     initial cutoff
   ENAUG  =  322.1 eV  augmentation charge cutoff
   NELM   =    100;   NELMIN=  2; NELMDL= -5     # of ELM steps
   EDIFF  = 0.1E-06   stopping-criterion for ELM
   LREAL  =      F    real-space projection
   NLSPLINE    = F    spline interpolate recip. space projectors
   LCOMPAT=      F    compatible to vasp.4.4
   GGA_COMPAT  = T    GGA compatible to vasp.4.4-vasp.4.6
   LMAXPAW     = -100 max onsite density
   LMAXMIX     =    2 max onsite mixed and CHGCAR
   VOSKOWN=      0    Vosko Wilk Nusair interpolation
   ROPT   =    0.00000
 Ionic relaxation
   EDIFFG = -.5E-02   stopping-criterion for IOM
   NSW    =     20    number of steps for IOM
   NBLOCK =      1;   KBLOCK =     20    inner block; outer block
   IBRION =      2    ionic relax: 0-MD 1-quasi-New 2-CG
   NFREE  =      1    steps in history (QN), initial steepest desc. (CG)
   ISIF   =      3    stress and relaxation
   IWAVPR =     11    prediction:  0-non 1-charg 2-wave 3-comb
   ISYM   =      2    0-nonsym 1-usesym 2-fastsym
   LCORR  =      T    Harris-Foulkes like correction to forces

   POTIM  = 0.5000    time-step for ionic-motion
   TEIN   =    0.0    initial temperature
   TEBEG  =    0.0;   TEEND  =   0.0 temperature during run
   SMASS  =  -3.00    Nose mass-parameter (am)
   estimated Nose-frequenzy (Omega)   =  0.10E-29 period in steps = 0.13E+47 mass=  -0.339E-27a.u.
   SCALEE = 1.0000    scale energy and forces
   NPACO  =    256;   APACO  = 10.0  distance and # of slots for P.C.
   PSTRESS=    0.0 pullay stress

  Mass of Ions in am
   POMASS =  28.09
  Ionic Valenz
   ZVAL   =   4.00
  Atomic Wigner-Seitz radii
  virtual crystal weights
   VCA    =   1.00
   NELECT =       8.0000    total number of electrons
   NUPDOWN=      -1.0000    fix difference up-down

 DOS related values:
   EMIN   =  10.00;   EMAX   =-10.00  energy-range for DOS
   EFERMI =   0.00
   ISMEAR =    -5;   SIGMA  =   0.10  broadening in eV -4-tet -1-fermi 0-gaus

 Electronic relaxation 2 (details)
   IALGO  =     38    algorithm
   LDIAG  =      T    sub-space diagonalisation (order eigenvalues)
   LSUBROT=      F    optimize rotation matrix (better conditioning)
   TURBO    =      0    0=normal 1=particle mesh
   IRESTART =      0    0=no restart 2=restart with 2 vectors
   NREBOOT  =      0    no. of reboots
   NMIN     =      0    reboot dimension
   EREF     =   0.00    reference energy to select bands
   IMIX   =      4    mixing-type and parameters
     AMIX     =   0.40;   BMIX     =  1.00
     AMIX_MAG =   1.60;   BMIX_MAG =  1.00
     AMIN     =   0.10
     WC   =   100.;   INIMIX=   1;  MIXPRE=   1;  MAXMIX= -45

 Intra band minimization:
   WEIMIN = 0.0010     energy-eigenvalue tresh-hold
   EBREAK =  0.31E-08  absolut break condition
   DEPER  =   0.30     relativ break condition

   TIME   =   0.40     timestep for ELM

  volume/ion in A,a.u.               =      20.16       136.08
  Fermi-wavevector in a.u.,A,eV,Ry     =   0.954766  1.804247 12.402783  0.911579
  Thomas-Fermi vector in A             =   2.083543

 Write flags
   LWAVE        =      F    write WAVECAR
   LDOWNSAMPLE  =      F    k-point downsampling of WAVECAR
   LCHARG       =      F    write CHGCAR
   LVTOT        =      F    write LOCPOT, total local potential
   LVHAR        =      F    write LOCPOT, Hartree potential only
   LELF         =      F    write electronic localiz. function (ELF)
   LORBIT       =     10    0 simple, 1 ext, 2 COOP (PROOUT), +10 PAW based schemes

 Dipole corrections
   LMONO  =      F    monopole corrections only (constant potential shift)
   LDIPOL =      F    correct potential (dipole corrections)
   IDIPOL =      0    1-x, 2-y, 3-z, 4-all directions
   EPSILON=  1.0000000 bulk dielectric constant

 Exchange correlation treatment:
   GGA     =    --    GGA type
   VOSKOWN =     0    Vosko Wilk Nusair interpolation
   LHFCALC =     F    Hartree Fock is set to
   LHFONE  =     F    Hartree Fock one center treatment
   AEXX    =    0.0000 exact exchange contribution

 Linear response parameters
   LEPSILON=     F    determine dielectric tensor
[...]

  Optional k-point grid parameters
   LKPOINTS_OPT  =     F    use optional k-point grid
   KPOINTS_OPT_MODE=     1    mode for optional k-point grid

 Orbital magnetization related:
   ORBITALMAG=     F  switch on orbital magnetization
   LCHIMAG   =     F  perturbation theory with respect to B field
   DQ        =  0.001000  dq finite difference perturbation B field
   LLRAUG    =     F  two centre corrections for induced B field

 conjugate gradient relaxation of ions
 charge density and potential will be updated during run
 non-spin polarized calculation
 Variant of blocked Davidson
 Davidson routine will perform the subspace rotation
 perform sub-space diagonalisation
    after iterative eigenvector-optimisation
 modified Broyden-mixing scheme, WC =      100.0
 initial mixing is a Kerker type mixing with AMIX =  0.4000 and BMIX =      1.0000
 Hartree-type preconditioning will be used
 using additional bands            4
 reciprocal scheme for non local part
 use partial core corrections
 calculate Harris-corrections to forces
   (improved forces if not selfconsistent)
 use gradient corrections
 use of overlap-Matrix (Vanderbilt PP)
 Fermi weights with tetrahedron method with Bloechl corrections

  energy-cutoff  :      400.00
  volume of cell :       40.33
      direct lattice vectors                 reciprocal lattice vectors
     0.000000000  2.721851186  2.721851186    -0.183698507  0.183698507  0.183698507
     2.721851186  0.000000000  2.721851186     0.183698507 -0.183698507  0.183698507
     2.721851186  2.721851186  0.000000000     0.183698507  0.183698507 -0.183698507

[...]

 k-points in units of 2pi/SCALE and weight: Num irrep kpoints: 10
   0.00000000  0.00000000  0.00000000       0.008
  -0.03673970  0.03673970  0.03673970       0.064
  -0.07347940  0.07347940  0.07347940       0.064
  -0.00000000 -0.00000000  0.07347940       0.048
  -0.03673970  0.03673970  0.11021910       0.192
   0.11021910 -0.11021910 -0.03673970       0.192
   0.07347940 -0.07347940  0.00000000       0.096
  -0.00000000 -0.00000000  0.14695881       0.048
   0.14695881 -0.14695881  0.00000000       0.096
   0.18369851 -0.11021910 -0.03673970       0.192

 k-points in reciprocal lattice and weights: Num irrep kpoints: 10
   0.00000000  0.00000000  0.00000000       0.008
   0.20000000 -0.00000000 -0.00000000       0.064
   0.40000000 -0.00000000 -0.00000000       0.064
   0.20000000  0.20000000 -0.00000000       0.048
   0.40000000  0.20000000 -0.00000000       0.192
  -0.40000000  0.20000000  0.00000000       0.192
  -0.20000000  0.20000000 -0.00000000       0.096
   0.40000000  0.40000000 -0.00000000       0.048
  -0.40000000  0.40000000 -0.00000000       0.096
  -0.40000000  0.40000000  0.20000000       0.192

 position of ions in fractional coordinates (direct lattice)
   0.25000000  0.25000000  0.25000000
   0.00000000  0.00000000  0.00000000

 position of ions in cartesian coordinates  (Angst):
   1.36092559  1.36092559  1.36092559
   0.00000000  0.00000000  0.00000000

 k-point   1 :   0.0000 0.0000 0.0000  plane waves:     725
 k-point   2 :   0.2000-0.0000-0.0000  plane waves:     733
 k-point   3 :   0.4000-0.0000-0.0000  plane waves:     739
 k-point   4 :   0.2000 0.2000-0.0000  plane waves:     725
 k-point   5 :   0.4000 0.2000-0.0000  plane waves:     725
 k-point   6 :  -0.4000 0.2000 0.0000  plane waves:     729
 k-point   7 :  -0.2000 0.2000-0.0000  plane waves:     734
 k-point   8 :   0.4000 0.4000-0.0000  plane waves:     729
 k-point   9 :  -0.4000 0.4000-0.0000  plane waves:     728
 k-point  10 :  -0.4000 0.4000 0.2000  plane waves:     737

 maximum and minimum number of plane-waves per node :       739      725

 maximum number of plane-waves:       739
 maximum index in each direction:
   IXMAX=    6   IYMAX=    6   IZMAX=    6
   IXMIN=   -6   IYMIN=   -6   IZMIN=   -6

 serial   3D FFT for wavefunctions
 parallel 3D FFT for charge:
    minimum data exchange during FFTs selected (reduces bandwidth)

 Broyden mixing: mesh for mixing (old mesh)
   NGX = 13   NGY = 13   NGZ = 13
  (NGX  = 40   NGY  = 40   NGZ  = 40)
  gives a total of   2197 points

 initial charge density was supplied:
 charge density of overlapping atoms calculated
 number of electron       8.0000000 magnetization
 keeping initial charge density in first step

 Maximum index for augmentation-charges          829 (set IRDMAX)

 First call to EWALD:  gamma=   0.517
 Maximum number of real-space cells 3x 3x 3
 Maximum number of reciprocal cells 3x 3x 3

--------------------------------------- Iteration      1(   1)  ---------------------------------------

 BZINTS: Fermi energy:    9.008833;    8.000000 electrons
         Band energy: 0.161115E+02;  BLOECHL correction:   -0.206418

 eigenvalue-minimisations  :   160
 total energy-change (2. order) : 0.3033817E+01  (-0.2920531E+03)
 number of electron       8.0000000 magnetization
 augmentation part        8.0000000 magnetization

 Free energy of the ion-electron system (eV)
  alpha Z        PSCENC =         3.33880741
  Ewald energy   TEWEN  =      -227.98820643
  -Hartree energ DENC   =       -11.11484531
  -exchange      EXHF   =         0.00000000
  -V(xc)+E(xc)   XCENC  =       -18.63153109
  PAW double counting   =       176.24759923     -141.06103558
  entropy T*S    EENTRO =         0.00000000
  eigenvalues    EBANDS =        16.11153669
  atomic energy  EATOM  =       206.13149246
  Solvation  Ediel_sol  =         0.00000000
  free energy    TOTEN  =         3.03381738 eV

  energy without entropy =        3.03381738  energy(sigma->0) =        3.03381738

[...]

 eigenvalue-minimisations  :   240
 total energy-change (2. order) :-0.1380496E+02  (-0.1368324E+02)
 number of electron       8.0000000 magnetization
 augmentation part        8.0000000 magnetization

[...]

 Broyden mixing:
  rms(total) = 0.48680E+00    rms(broyden)= 0.48680E+00
  rms(prec ) = 0.96314E+00
  weight for this iteration     100.00

[...]

 eigenvalues of (default mixing * dielectric matrix)
  average eigenvalue GAMMA=   2.5728
  2.5728

[...]

 average (electrostatic) potential at core
  the test charge radii are     0.9892
  (the norm of the test charge is              1.0000)
       1 -83.2994       2 -83.2994

 E-fermi :   5.7720     XC(G=0):  -9.3699     alpha+bet :-11.8943

 Fermi energy:         5.7720290646

 k-point     1 :       0.0000    0.0000    0.0000
  band No.  band energies     occupation
      1      -6.1396      2.00000
      2       5.7723      2.00000
      3       5.7723      2.00000
      4       5.7723      2.00000
      5       8.3275      0.00000
      6       8.3275      0.00000
      7       8.3275      0.00000
      8       9.0647      0.00000

[...]

 soft charge-density along one line, spin component           1
         0         1         2         3         4         5         6         7         8         9
 total charge-density along one line

------------------------ aborting loop because EDIFF is reached ----------------------------------------

 total charge

# of ion       s       p       d       tot
    1        0.745   0.945   0.000   1.690
    2        0.745   0.945   0.000   1.690
tot          1.490   1.890   0.000   3.380

  FORCE on cell =-STRESS in cart. coord.  units (eV):
  Direction    XX          YY          ZZ          XY          YZ          ZX
  Alpha Z     3.33881     3.33881     3.33881
  Ewald     -75.99610   -75.99610   -75.99610    -0.00000     0.00000    -0.00000
  Hartree     5.04868     5.04868     5.04868     0.00000     0.00000     0.00000
  E(xc)     -25.34734   -25.34734   -25.34734    -0.00000    -0.00000    -0.00000
  Local     -29.40211   -29.40211   -29.40211     0.00002     0.00002     0.00002
  n-local    79.16140    79.69839    73.86606     2.52410    -1.02886     0.79079
  augment   -11.59227   -11.59227   -11.59227    -0.00002    -0.00002    -0.00002
  Kinetic    58.59817    57.03520    54.59025     3.75758    -1.02490     0.94580
  Fock        0.00000     0.00000     0.00000     0.00000     0.00000     0.00000
  Total       0.36616     0.36616     0.36616    -0.00000     0.00000     0.00000
  in kB      14.54643    14.54643    14.54643    -0.00000     0.00000     0.00000

 VOLUME and BASIS-vectors are now :
  energy-cutoff  :      400.00
  volume of cell :       40.33
      direct lattice vectors                 reciprocal lattice vectors
     0.000000000  2.721851186  2.721851186    -0.183698507  0.183698507  0.183698507
     2.721851186  0.000000000  2.721851186     0.183698507 -0.183698507  0.183698507
     2.721851186  2.721851186  0.000000000     0.183698507  0.183698507 -0.183698507

[...]

 FORCES acting on ions
    electron-ion (+dipol)            ewald-force                    non-local-force                 convergence-correction
   -.844E-06 -.844E-06 -.879E-06   0.957E-15 0.317E-15 -.155E-13   0.776E-17 -.269E-16 0.161E-16   -.868E-10 -.868E-10 -.868E-10
   0.844E-06 0.844E-06 0.879E-06   -.847E-15 -.987E-15 0.155E-13   -.208E-16 0.486E-16 -.365E-17   0.868E-10 0.868E-10 0.868E-10
   0.638E-14 0.109E-13 0.266E-13   0.110E-15 -.670E-15 0.225E-16   -.130E-16 0.217E-16 0.125E-16   0.237E-14 0.539E-15 -.153E-14

 POSITION                                       TOTAL-FORCE (eV/Angst)
      1.36093      1.36093      1.36093        -0.000000     -0.000000     -0.000000
      0.00000      0.00000      0.00000         0.000000      0.000000      0.000000
    total drift:                                0.000000      0.000000      0.000000

  FREE ENERGIE OF THE ION-ELECTRON SYSTEM (eV)
  free  energy   TOTEN  =       -10.78344730 eV

  energy  without entropy=      -10.78344730  energy(sigma->0) =      -10.78344730

 stress matrix after NEB project (eV)
      0.36616     -0.00000      0.00000
     -0.00000      0.36616     -0.00000
      0.00000      0.00000      0.36616
  FORCES: max atom, RMS     0.000000    0.000000
  FORCE total and by dimension    0.000000    0.000000
  Stress total and by dimension    0.634205    0.366158

[...]

 d Force = 0.0000000E+00[ 0.000E+00, 0.000E+00]  d Energy = 0.1531526E-02-0.153E-02
 d Force = 0.0000000E+00[ 0.000E+00, 0.000E+00]  d Ewald  =-0.1996014E+01 0.200E+01

 stress matrix after NEB project (eV)
     -0.24095      0.00000     -0.00000
     -0.00000     -0.24095     -0.00000
     -0.00000      0.00000     -0.24095
  FORCES: max atom, RMS     0.000000    0.000000
  FORCE total and by dimension    0.000000    0.000000
  Stress total and by dimension    0.417330    0.240946
 Steepest descent step on ions:
 trial-energy change:   -0.001532  1 .order   -0.001659   -0.009702    0.006384
  (g-gl).g = 0.970E-02      g.g   = 0.970E-02  gl.gl    = 0.000E+00
 g(Force)  = 0.118E-45   g(Stress)= 0.970E-02 ortho     = 0.000E+00
 gamma     =   0.00000
 trial     =   1.00000
 opt step  =   0.59165  (harmonic =   0.60312) maximal distance =0.00000000
 next E    =   -10.786291   (d E  =  -0.00284)

[...]

 eigenvalue-minimisations  :   200
 total energy-change (2. order) :-0.2106681E-05  (-0.1244179E-06)
 number of electron       8.0000000 magnetization
 augmentation part       -0.4559379 magnetization

 Broyden mixing:
  rms(total) = 0.57670E-03    rms(broyden)= 0.57670E-03
  rms(prec ) = 0.58903E-03
  weight for this iteration     100.00

 eigenvalues of (default mixing * dielectric matrix)
  average eigenvalue GAMMA=   1.7365
  2.6907  2.2532  1.0010  1.0010

[...]

--------------------------------------- Iteration      3(   6)  ---------------------------------------

[...]

 eigenvalue-minimisations  :   160
 total energy-change (2. order) : 0.2419074E-07  (-0.1459653E-08)
 number of electron       8.0000000 magnetization
 augmentation part       -0.4559379 magnetization

 Free energy of the ion-electron system (eV)
  alpha Z        PSCENC =         3.28700818
  Ewald energy   TEWEN  =      -226.80303095
  -Hartree energ DENC   =       -15.33229031
  -exchange      EXHF   =         0.00000000
  -V(xc)+E(xc)   XCENC  =       -18.05045063
  PAW double counting   =       830.54793447     -795.56884220
  entropy T*S    EENTRO =         0.00000000
  eigenvalues    EBANDS =         5.00189295
  atomic energy  EATOM  =       206.13149246
  Solvation  Ediel_sol  =         0.00000000
  free energy    TOTEN  =       -10.78628603 eV

  energy without entropy =      -10.78628603  energy(sigma->0) =      -10.78628603

 average (electrostatic) potential at core
  the test charge radii are     0.9892
  (the norm of the test charge is              1.0000)
       1 -83.4740       2 -83.4740

 E-fermi :   5.6157     XC(G=0):  -9.3088     alpha+bet :-11.7097

 Fermi energy:         5.6157412388

[...]

 k-point    10 :      -0.4000    0.4000    0.2000
  band No.  band energies     occupation
      1      -3.1044      2.00000
      2      -0.8961      2.00000
      3       1.7292      2.00000
      4       2.6952      2.00000
      5       8.9925      0.00000
      6       9.3915      0.00000
      7       9.9765      0.00000
      8      13.3074      0.00000

 soft charge-density along one line, spin component           1
         0         1         2         3         4         5         6         7         8         9
 total charge-density along one line

------------------------ aborting loop because EDIFF is reached ----------------------------------------

[...]

  FORCE on cell =-STRESS in cart. coord.  units (eV):
  Direction    XX          YY          ZZ          XY          YZ          ZX
  Alpha Z     3.28701     3.28701     3.28701
  Ewald     -75.60104   -75.60104   -75.60104     0.00000    -0.00000     0.00000
  Hartree     5.11065     5.11065     5.11065     0.00000     0.00000     0.00000
  E(xc)     -25.25682   -25.25682   -25.25682    -0.00000    -0.00000    -0.00000
  Local     -29.61861   -29.61861   -29.61861     0.00002     0.00002     0.00002
  n-local    78.86233    79.39855    73.59787     2.48545    -1.01236     0.77736
  augment   -11.58826   -11.58826   -11.58826    -0.00002    -0.00002    -0.00002
  Kinetic    58.26224    56.75912    54.12490     3.75568    -1.03878     0.95281
  Fock        0.00000     0.00000     0.00000     0.00000     0.00000     0.00000
  Total       0.00127     0.00127     0.00127     0.00000     0.00000    -0.00000
  in kB       0.04970     0.04970     0.04970     0.00000     0.00000    -0.00000

 VOLUME and BASIS-vectors are now :
  energy-cutoff  :      400.00
  volume of cell :       40.97
      direct lattice vectors                 reciprocal lattice vectors
     0.000000000  2.736074415  2.736074415    -0.182743568  0.182743568  0.182743568
     2.736074415 -0.000000000  2.736074415     0.182743568 -0.182743568  0.182743568
     2.736074415  2.736074415  0.000000000     0.182743568  0.182743568 -0.182743568

  length of vectors
     3.869393545  3.869393545  3.869393545     0.316521144  0.316521144  0.316521144

 FORCES acting on ions
    electron-ion (+dipol)            ewald-force                    non-local-force                 convergence-correction
   -.897E-06 -.897E-06 -.952E-06   -.661E-15 -.104E-14 0.162E-13   -.237E-16 0.248E-16 -.701E-17   -.299E-09 -.299E-09 -.299E-09
   0.897E-06 0.897E-06 0.952E-06   0.641E-15 0.953E-15 -.162E-13   -.179E-16 -.179E-16 -.696E-17   0.299E-09 0.299E-09 0.299E-09
   0.149E-13 0.173E-13 0.280E-13   -.194E-16 -.835E-16 -.330E-16   -.416E-16 0.693E-17 -.140E-16   0.149E-14 0.303E-14 0.992E-15

 POSITION                                       TOTAL-FORCE (eV/Angst)
      1.36804      1.36804      1.36804         0.000000      0.000000      0.000000
      0.00000      0.00000      0.00000        -0.000000     -0.000000     -0.000000
    total drift:                                0.000000      0.000000      0.000000

  FREE ENERGIE OF THE ION-ELECTRON SYSTEM (eV)
  free  energy   TOTEN  =       -10.78628603 eV

  energy  without entropy=      -10.78628603  energy(sigma->0) =      -10.78628603

 d Force = 0.0000000E+00[ 0.000E+00, 0.000E+00]  d Energy = 0.1307202E-02-0.131E-02
 d Force = 0.0000000E+00[ 0.000E+00, 0.000E+00]  d Ewald  = 0.8108389E+00-0.811E+00

 stress matrix after NEB project (eV)
      0.00127     -0.00000     -0.00000
      0.00000      0.00127     -0.00000
     -0.00000      0.00000      0.00127
  FORCES: max atom, RMS     0.000000    0.000000
  FORCE total and by dimension    0.000000    0.000000
  Stress total and by dimension    0.002201    0.001271

 reached required accuracy - stopping structural energy minimisation

 total charge

# of ion       s       p       d       tot
    1        0.745   0.934   0.000   1.679
    2        0.745   0.934   0.000   1.679
tot          1.490   1.868   0.000   3.359

 BZINTS: Fermi energy:    5.615741;    8.000000 electrons
         Band energy: 0.500189E+01;  BLOECHL correction:   -0.000000