 vasp.6.3.1 04May22 (build Jun 07 2022 20:23:04) complex

 executed on             LinuxIFC date 2024.04.20  16:34:20

 INCAR:
   ALGO = Normal
   PREC = Normal
   LREAL = False
   EDIFF = 1e-07
   ENCUT = 400.0
   LASPH = True
   NELM = 100
   ISIF = 3
   IBRION = 2
   EDIFFG = -0.005
   NSW = 20
   ISMEAR = 0
   SIGMA = 0.1
   LWAVE = False
   LCHARG = False
   LORBIT = 10
   KPAR = 4

 POTCAR:    PAW_PBE Mg 13Apr2007
|           W    W    AA    RRRRR   N    N  II  N    N   GGGG   !!!           |
|           W    W   A  A   R    R  NN   N  II  NN   N  G    G  !!!           |
|           W    W  A    A  R    R  N N  N  II  N N  N  G       !!!           |
|           W WW W  AAAAAA  RRRRR   N  N N  II  N  N N  G  GGG   !            |
|           WW  WW  A    A  R   R   N   NN  II  N   NN  G    G                |
|           W    W  A    A  R    R  N    N  II  N    N   GGGG   !!!           |
|     For optimal performance we recommend to set                             |
|       NCORE = 2 up to number-of-cores-per-socket                            |
|     This setting can greatly improve the performance of VASP for DFT.       |
|     The default, NCORE=1 might be grossly inefficient on modern             |
|     multi-core architectures or massively parallel machines. Do your        |
|     Unfortunately you need to use the default for GW and RPA                |
|     calculations (for HF NCORE is supported but not extensively tested      |
|     yet).                                                                   |

   TITEL  = PAW_PBE Mg 13Apr2007
   POMASS =   24.305; ZVAL   =    2.000    mass and valenz
   ENMAX  =  200.000; ENMIN  =  100.000 eV

  PAW_PBE Mg 13Apr2007                  :

 POSCAR: Mg2
  positions in direct lattice
 exchange correlation table for  LEXCH =        8
   RHO(1)=    0.500       N(1)  =     2000
   RHO(2)=  100.500       N(2)  =     4000

 VTST: version 4.2, (08/11/21)

 CHAIN: initializing optimizer

 OPT: Using VASP Conjugate-Gradient optimizer
 CHAIN: Read ICHAIN            0

 POSCAR: Mg2
  positions in direct lattice

 ion  position               nearest neighbor table
   1  0.333  0.667  0.250-   2 3.16   2 3.16   2 3.16   2 3.16   2 3.16   2 3.16
   2  0.667  0.333  0.750-   1 3.16   1 3.16   1 3.16   1 3.16   1 3.16   1 3.16

  LATTYP: Found a hexagonal cell.
 ALAT       =     3.1720232863
 C/A-ratio  =     1.6207967080

  Lattice vectors:

 A1 = (   3.1720232863,   0.0000000000,   0.0000000000)
 A2 = (  -1.5860116431,   2.7470527473,   0.0000000000)
 A3 = (   0.0000000000,   0.0000000000,   5.1412049000)

Analysis of symmetry for initial positions (statically):
 Subroutine PRICEL returns:
 Original cell was already a primitive cell.

 Routine SETGRP: Setting up the symmetry group for a
 hexagonal supercell.

 Subroutine GETGRP returns: Found 24 space group operations
 (whereof 12 operations were pure point group operations)
 out of a pool of 24 trial point group operations.

The static configuration has the point symmetry D_3d.
 The point group associated with its full space group is D_6h.

Analysis of symmetry for dynamics (positions and initial velocities):
 Subroutine PRICEL returns:
 Original cell was already a primitive cell.

 Routine SETGRP: Setting up the symmetry group for a
 hexagonal supercell.

 Subroutine GETGRP returns: Found 24 space group operations
 (whereof 12 operations were pure point group operations)
 out of a pool of 24 trial point group operations.

The dynamic configuration has the point symmetry D_3d.
 The point group associated with its full space group is D_6h.

 Subroutine INISYM returns: Found 24 space group operations
 (whereof 12 operations are pure point group operations),
 and found     1 'primitive' translations

                                     Primitive cell

  volume of cell :      44.7990

  direct lattice vectors                    reciprocal lattice vectors
     3.172023286  0.000000000  0.000000000     0.315256198  0.182013251  0.000000000
    -1.586011643  2.747052747  0.000000000     0.000000000  0.364026501  0.000000000
     0.000000000  0.000000000  5.141204900     0.000000000  0.000000000  0.194506934

  length of vectors
     3.172023286  3.172023286  5.141204900     0.364026501  0.364026501  0.194506934

  position of ions in fractional coordinates (direct lattice)
     0.333333333  0.666666667  0.250000000
     0.666666667  0.333333333  0.750000000

  ion indices of the primitive-cell ions
   primitive index   ion index
                 1           1
                 2           2

 KPOINTS: Num irrep kpoints: 76

Automatic generation of k-mesh.
 Grid dimensions read from file:
 generate k-points for:   12   12    7

 Generating k-lattice:

  Cartesian coordinates                     Fractional coordinates (reciprocal lattice)
     0.026271350  0.015167771  0.000000000     0.083333333 -0.000000000  0.000000000
     0.000000000  0.030335542  0.000000000     0.000000000  0.083333333  0.000000000
     0.000000000  0.000000000  0.027786705     0.000000000  0.000000000  0.142857143

  Length of vectors
     0.030335542  0.030335542  0.027786705

  Shift w.r.t. Gamma in fractional coordinates (k-lattice)
     0.000000000  0.000000000  0.000000000

 Subroutine IBZKPT returns following result:

 Found     76 irreducible k-points:

 Following reciprocal coordinates:
            Coordinates               Weight
  0.000000  0.000000  0.000000      1.000000
  0.083333 -0.000000  0.000000      6.000000
  0.166667 -0.000000  0.000000      6.000000
  0.250000  0.000000  0.000000      6.000000
  0.333333  0.000000  0.000000      6.000000
  0.416667 -0.000000  0.000000      6.000000
  0.500000  0.000000  0.000000      3.000000
  0.083333  0.083333  0.000000      6.000000
  0.166667  0.083333  0.000000     12.000000
  0.250000  0.083333  0.000000     12.000000
  0.333333  0.083333  0.000000     12.000000
  0.416667  0.083333  0.000000     12.000000
  0.166667  0.166667  0.000000      6.000000
  0.250000  0.166667  0.000000     12.000000
  0.333333  0.166667  0.000000     12.000000
  0.416667  0.166667  0.000000      6.000000
  0.250000  0.250000  0.000000      6.000000
  0.333333  0.250000  0.000000     12.000000
  0.333333  0.333333  0.000000      2.000000
  0.000000  0.000000  0.142857      2.000000
  0.083333 -0.000000  0.142857     12.000000
  0.166667 -0.000000  0.142857     12.000000
  0.250000  0.000000  0.142857     12.000000
  0.333333  0.000000  0.142857     12.000000
  0.416667 -0.000000  0.142857     12.000000
  0.500000  0.000000  0.142857      6.000000
  0.083333  0.083333  0.142857     12.000000
  0.166667  0.083333  0.142857     24.000000
  0.250000  0.083333  0.142857     24.000000
  0.333333  0.083333  0.142857     24.000000
  0.416667  0.083333  0.142857     24.000000
  0.166667  0.166667  0.142857     12.000000
  0.250000  0.166667  0.142857     24.000000
  0.333333  0.166667  0.142857     24.000000
  0.416667  0.166667  0.142857     12.000000
  0.250000  0.250000  0.142857     12.000000
  0.333333  0.250000  0.142857     24.000000
  0.333333  0.333333  0.142857      4.000000
  0.000000  0.000000  0.285714      2.000000
  0.083333 -0.000000  0.285714     12.000000
  0.166667 -0.000000  0.285714     12.000000
  0.250000  0.000000  0.285714     12.000000
  0.333333  0.000000  0.285714     12.000000
  0.416667 -0.000000  0.285714     12.000000
  0.500000  0.000000  0.285714      6.000000
  0.083333  0.083333  0.285714     12.000000
  0.166667  0.083333  0.285714     24.000000
  0.250000  0.083333  0.285714     24.000000
  0.333333  0.083333  0.285714     24.000000
  0.416667  0.083333  0.285714     24.000000
  0.166667  0.166667  0.285714     12.000000
  0.250000  0.166667  0.285714     24.000000
  0.333333  0.166667  0.285714     24.000000
  0.416667  0.166667  0.285714     12.000000
  0.250000  0.250000  0.285714     12.000000
  0.333333  0.250000  0.285714     24.000000
  0.333333  0.333333  0.285714      4.000000
  0.000000  0.000000  0.428571      2.000000
  0.083333 -0.000000  0.428571     12.000000
  0.166667 -0.000000  0.428571     12.000000
  0.250000  0.000000  0.428571     12.000000
  0.333333  0.000000  0.428571     12.000000
  0.416667 -0.000000  0.428571     12.000000
  0.500000  0.000000  0.428571      6.000000
  0.083333  0.083333  0.428571     12.000000
  0.166667  0.083333  0.428571     24.000000
  0.250000  0.083333  0.428571     24.000000
  0.333333  0.083333  0.428571     24.000000
  0.416667  0.083333  0.428571     24.000000
  0.166667  0.166667  0.428571     12.000000
  0.250000  0.166667  0.428571     24.000000
  0.333333  0.166667  0.428571     24.000000
  0.416667  0.166667  0.428571     12.000000
  0.250000  0.250000  0.428571     12.000000
  0.333333  0.250000  0.428571     24.000000
  0.333333  0.333333  0.428571      4.000000

 Following cartesian coordinates:
            Coordinates               Weight
  0.000000  0.000000  0.000000      1.000000
  0.026271  0.015168  0.000000      6.000000
  0.052543  0.030336  0.000000      6.000000
  0.078814  0.045503  0.000000      6.000000
  0.105085  0.060671  0.000000      6.000000
  0.131357  0.075839  0.000000      6.000000
  0.157628  0.091007  0.000000      3.000000
  0.026271  0.045503  0.000000      6.000000
  0.052543  0.060671  0.000000     12.000000
  0.078814  0.075839  0.000000     12.000000
  0.105085  0.091007  0.000000     12.000000
  0.131357  0.106174  0.000000     12.000000
  0.052543  0.091007  0.000000      6.000000
  0.078814  0.106174  0.000000     12.000000
  0.105085  0.121342  0.000000     12.000000
  0.131357  0.136510  0.000000      6.000000
  0.078814  0.136510  0.000000      6.000000
  0.105085  0.151678  0.000000     12.000000
  0.105085  0.182013  0.000000      2.000000
  0.000000  0.000000  0.027787      2.000000
  0.026271  0.015168  0.027787     12.000000
  0.052543  0.030336  0.027787     12.000000
  0.078814  0.045503  0.027787     12.000000
  0.105085  0.060671  0.027787     12.000000
  0.131357  0.075839  0.027787     12.000000
  0.157628  0.091007  0.027787      6.000000
  0.026271  0.045503  0.027787     12.000000
  0.052543  0.060671  0.027787     24.000000
  0.078814  0.075839  0.027787     24.000000
  0.105085  0.091007  0.027787     24.000000
  0.131357  0.106174  0.027787     24.000000
  0.052543  0.091007  0.027787     12.000000
  0.078814  0.106174  0.027787     24.000000
  0.105085  0.121342  0.027787     24.000000
  0.131357  0.136510  0.027787     12.000000
  0.078814  0.136510  0.027787     12.000000
  0.105085  0.151678  0.027787     24.000000
  0.105085  0.182013  0.027787      4.000000
  0.000000  0.000000  0.055573      2.000000
  0.026271  0.015168  0.055573     12.000000
  0.052543  0.030336  0.055573     12.000000
  0.078814  0.045503  0.055573     12.000000
  0.105085  0.060671  0.055573     12.000000
  0.131357  0.075839  0.055573     12.000000
  0.157628  0.091007  0.055573      6.000000
  0.026271  0.045503  0.055573     12.000000
  0.052543  0.060671  0.055573     24.000000
  0.078814  0.075839  0.055573     24.000000
  0.105085  0.091007  0.055573     24.000000
  0.131357  0.106174  0.055573     24.000000
  0.052543  0.091007  0.055573     12.000000
[...]
 k-point  30 :   0.3333 0.0833 0.1429  plane waves:     817
 k-point  31 :   0.4167 0.0833 0.1429  plane waves:     820
 k-point  32 :   0.1667 0.1667 0.1429  plane waves:     811
 k-point  33 :   0.2500 0.1667 0.1429  plane waves:     812
 k-point  34 :   0.3333 0.1667 0.1429  plane waves:     818
 k-point  35 :   0.4167 0.1667 0.1429  plane waves:     822
 k-point  36 :   0.2500 0.2500 0.1429  plane waves:     813
 k-point  37 :   0.3333 0.2500 0.1429  plane waves:     817
 k-point  38 :   0.3333 0.3333 0.1429  plane waves:     810
 k-point  39 :   0.0000 0.0000 0.2857  plane waves:     821
 k-point  40 :   0.0833-0.0000 0.2857  plane waves:     811
 k-point  41 :   0.1667-0.0000 0.2857  plane waves:     811
 k-point  42 :   0.2500 0.0000 0.2857  plane waves:     814
 k-point  43 :   0.3333 0.0000 0.2857  plane waves:     815
 k-point  44 :   0.4167-0.0000 0.2857  plane waves:     814
 k-point  45 :   0.5000 0.0000 0.2857  plane waves:     810
 k-point  46 :   0.0833 0.0833 0.2857  plane waves:     805
 k-point  47 :   0.1667 0.0833 0.2857  plane waves:     809
 k-point  48 :   0.2500 0.0833 0.2857  plane waves:     814
 k-point  49 :   0.3333 0.0833 0.2857  plane waves:     819
 k-point  50 :   0.4167 0.0833 0.2857  plane waves:     818
 k-point  51 :   0.1667 0.1667 0.2857  plane waves:     807
 k-point  52 :   0.2500 0.1667 0.2857  plane waves:     815
 k-point  53 :   0.3333 0.1667 0.2857  plane waves:     819
 k-point  54 :   0.4167 0.1667 0.2857  plane waves:     816
 k-point  55 :   0.2500 0.2500 0.2857  plane waves:     816
 k-point  56 :   0.3333 0.2500 0.2857  plane waves:     815
 k-point  57 :   0.3333 0.3333 0.2857  plane waves:     807
 k-point  58 :   0.0000 0.0000 0.4286  plane waves:     814
 k-point  59 :   0.0833-0.0000 0.4286  plane waves:     809
 k-point  60 :   0.1667-0.0000 0.4286  plane waves:     807
 k-point  61 :   0.2500 0.0000 0.4286  plane waves:     808
 k-point  62 :   0.3333 0.0000 0.4286  plane waves:     814
 k-point  63 :   0.4167-0.0000 0.4286  plane waves:     816
 k-point  64 :   0.5000 0.0000 0.4286  plane waves:     808
 k-point  65 :   0.0833 0.0833 0.4286  plane waves:     806
 k-point  66 :   0.1667 0.0833 0.4286  plane waves:     816
 k-point  67 :   0.2500 0.0833 0.4286  plane waves:     812
 k-point  68 :   0.3333 0.0833 0.4286  plane waves:     817
 k-point  69 :   0.4167 0.0833 0.4286  plane waves:     815
 k-point  70 :   0.1667 0.1667 0.4286  plane waves:     821
 k-point  71 :   0.2500 0.1667 0.4286  plane waves:     817
 k-point  72 :   0.3333 0.1667 0.4286  plane waves:     811
 k-point  73 :   0.4167 0.1667 0.4286  plane waves:     804
 k-point  74 :   0.2500 0.2500 0.4286  plane waves:     816
 k-point  75 :   0.3333 0.2500 0.4286  plane waves:     807
 k-point  76 :   0.3333 0.3333 0.4286  plane waves:     804

 maximum and minimum number of plane-waves per node :       834      785

 maximum number of plane-waves:       834
 maximum index in each direction:
   IXMAX=    5   IYMAX=    5   IZMAX=    8
   IXMIN=   -5   IYMIN=   -5   IZMIN=   -8

 serial   3D FFT for wavefunctions
 parallel 3D FFT for charge:
    minimum data exchange during FFTs selected (reduces bandwidth)

 Broyden mixing: mesh for mixing (old mesh)
   NGX = 11   NGY = 11   NGZ = 17
  (NGX  = 32   NGY  = 32   NGZ  = 56)
  gives a total of   2057 points

 initial charge density was supplied:
 charge density of overlapping atoms calculated
 number of electron       4.0000000 magnetization
 keeping initial charge density in first step

 Maximum index for augmentation-charges          817 (set IRDMAX)

 First call to EWALD:  gamma=   0.499
 Maximum number of real-space cells 3x 3x 2
 Maximum number of reciprocal cells 3x 3x 4

--------------------------------------- Iteration      1(   1)  ---------------------------------------

 eigenvalue-minimisations  :  1216
 total energy-change (2. order) :-0.9846739E+00  (-0.1176096E+03)
 number of electron       4.0000000 magnetization
 augmentation part        4.0000000 magnetization

 Free energy of the ion-electron system (eV)
  alpha Z        PSCENC =         4.01845705
  Ewald energy   TEWEN  =       -59.01388070
  -Hartree energ DENC   =        -0.05633182
  -exchange      EXHF   =         0.00000000
  -V(xc)+E(xc)   XCENC  =       -97.82940657
  PAW double counting   =       130.61339054      -26.88791747
  entropy T*S    EENTRO =        -0.00345582
  eigenvalues    EBANDS =         2.10092396
  atomic energy  EATOM  =        46.07354693
  Solvation  Ediel_sol  =         0.00000000
  free energy    TOTEN  =        -0.98467392 eV

  energy without entropy =       -0.98121810  energy(sigma->0) =       -0.98294601

[...]

 Broyden mixing:
  rms(total) = 0.96201E-01    rms(broyden)= 0.96201E-01
  rms(prec ) = 0.19956E+00
  weight for this iteration     100.00

[...]

 eigenvalue-minimisations  :  1488
 total energy-change (2. order) : 0.6208537E-02  (-0.5360278E-04)
 number of electron       4.0000000 magnetization
 augmentation part        0.0133559 magnetization

[...]

 eigenvalues of (default mixing * dielectric matrix)
  average eigenvalue GAMMA=   2.7614
  2.7614

[...]

 average (electrostatic) potential at core
  the test charge radii are     1.0714
  (the norm of the test charge is              1.0000)
       1 -39.0609       2 -39.0609

 E-fermi :   2.6978     XC(G=0):  -8.5673     alpha+bet : -7.6334

 Fermi energy:         2.6977582383

 k-point     1 :       0.0000    0.0000    0.0000
  band No.  band energies     occupation
      1      -4.2749      2.00000
      2       1.0476      2.00000
      3       1.5392      2.00000
      4      13.8276      0.00000
      5      13.8276      0.00000
      6      13.9881      0.00000
      7      13.9881      0.00000
      8      14.7461      0.00000

[...]

 soft charge-density along one line, spin component           1
         0         1         2         3         4         5         6         7         8         9
 total charge-density along one line

------------------------ aborting loop because EDIFF is reached ----------------------------------------

 total charge

# of ion       s       p       d       tot
    1        0.209   0.131   0.012   0.352
    2        0.209   0.131   0.012   0.352
tot          0.417   0.263   0.024   0.704

  FORCE on cell =-STRESS in cart. coord.  units (eV):
  Direction    XX          YY          ZZ          XY          YZ          ZX
  Alpha Z     4.01846     4.01846     4.01846
  Ewald     -19.74599   -19.74599   -19.52195     0.00000     0.00000     0.00000
  Hartree     0.03772     0.03772     0.05154     0.00000    -0.00000    -0.00000
  E(xc)      -9.76983    -9.76982    -9.76652     0.00002     0.00000     0.00000
  Local      -0.38288    -0.38288    -0.49956     0.00000     0.00000     0.00000
  n-local    13.45757    13.21726    13.31457     0.29240    -0.11955    -0.19986
  augment     0.12303     0.12303     0.12462     0.00000     0.00000     0.00000
  Kinetic    14.77585    10.56635    12.32851     9.31056    -1.84878    -2.48275
  Fock        0.00000     0.00000     0.00000     0.00000     0.00000     0.00000
  Total       0.28902     0.28902     0.04967     0.00000    -0.00000     0.00000
  in kB      10.33652    10.33652     1.77654     0.00000    -0.00000     0.00000

 VOLUME and BASIS-vectors are now :
  energy-cutoff  :      400.00
  volume of cell :       44.80
      direct lattice vectors                 reciprocal lattice vectors
     3.172023286  0.000000000  0.000000000     0.315256198  0.182013251  0.000000000
    -1.586011643  2.747052747  0.000000000     0.000000000  0.364026501  0.000000000
     0.000000000  0.000000000  5.141204900     0.000000000  0.000000000  0.194506934

[...]

 FORCES acting on ions
    electron-ion (+dipol)            ewald-force                    non-local-force                 convergence-correction
   -.210E-05 0.121E-05 0.411E-10   0.205E-09 -.164E-09 -.742E-15   -.132E-16 -.332E-18 -.365E-17   -.209E-11 0.121E-11 0.758E-16
   0.210E-05 -.121E-05 0.411E-10   -.205E-09 0.164E-09 0.742E-15   0.150E-18 -.778E-17 -.192E-18   0.209E-11 -.121E-11 0.403E-17
   0.518E-09 -.299E-09 0.822E-10   -.349E-16 -.249E-16 0.342E-18   -.131E-16 -.811E-17 -.384E-17   0.867E-16 -.476E-16 0.799E-16

 POSITION                                       TOTAL-FORCE (eV/Angst)
     -0.00000      1.83137      1.28530        -0.000000      0.000000      0.000000
      1.58601      0.91568      3.85590         0.000000     -0.000000     -0.000000
    total drift:                                0.000000     -0.000000      0.000000

  FREE ENERGIE OF THE ION-ELECTRON SYSTEM (eV)
  free  energy   TOTEN  =        -3.01293980 eV

  energy  without entropy=       -3.00843540  energy(sigma->0) =       -3.01068760

 stress matrix after NEB project (eV)
      0.28902      0.00000      0.00000
      0.00000      0.28902      0.00000
      0.00000     -0.00000      0.04967
  FORCES: max atom, RMS     0.000000    0.000000
  FORCE total and by dimension    0.000000    0.000000
  Stress total and by dimension    0.411747    0.289023

[...]

 d Force = 0.0000000E+00[ 0.000E+00, 0.000E+00]  d Energy = 0.2684285E-02-0.268E-02
 d Force = 0.0000000E+00[ 0.000E+00, 0.000E+00]  d Ewald  =-0.2972580E+00 0.297E+00

 stress matrix after NEB project (eV)
      0.09947      0.00000      0.00000
      0.00000      0.09947      0.00000
     -0.00000      0.00000     -0.05494
  FORCES: max atom, RMS     0.000000    0.000000
  FORCE total and by dimension    0.000000    0.000000
  Stress total and by dimension    0.151025    0.099473
 Steepest descent step on ions:
 trial-energy change:   -0.002684  1 .order   -0.002705   -0.004089   -0.001321
  (g-gl).g = 0.409E-02      g.g   = 0.409E-02  gl.gl    = 0.000E+00
 g(Force)  = 0.319E-45   g(Stress)= 0.409E-02 ortho     = 0.000E+00
 gamma     =   0.00000
 trial     =   1.00000
 opt step  =   1.51253  (harmonic =   1.47724) maximal distance =0.00000000
 next E    =    -3.015960   (d E  =  -0.00302)

[...]

 d Force = 0.0000000E+00[ 0.000E+00, 0.000E+00]  d Energy = 0.3160948E-03-0.316E-03
 d Force = 0.0000000E+00[ 0.000E+00, 0.000E+00]  d Ewald  =-0.1512298E+00 0.151E+00

[...]

 d Force = 0.0000000E+00[ 0.000E+00, 0.000E+00]  d Energy = 0.8798022E-06-0.880E-06
 d Force = 0.0000000E+00[ 0.000E+00, 0.000E+00]  d Ewald  = 0.6636632E-02-0.664E-02

[...]

 stress matrix after NEB project (eV)
      0.00269      0.00000      0.00000
      0.00000      0.00269      0.00000
      0.00000      0.00000     -0.05029
  FORCES: max atom, RMS     0.000000    0.000000
  FORCE total and by dimension    0.000000    0.000000
  Stress total and by dimension    0.050435    0.050291
 Conjugate gradient step on ions:
 trial-energy change:   -0.000212  1 .order   -0.000210   -0.000284   -0.000137
  (g-gl).g = 0.264E-03      g.g   = 0.259E-03  gl.gl    = 0.409E-02
 g(Force)  = 0.970E-47   g(Stress)= 0.259E-03 ortho     =-0.499E-05
 gamma     =   0.06450
 trial     =   1.09800
 opt step  =   2.01247  (harmonic =   2.11758) maximal distance =0.00000000
 next E    =    -3.016211   (d E  =  -0.00027)

[...]

 eigenvalue-minimisations  :  1592
 total energy-change (2. order) :-0.6258334E-04  (-0.5056970E-04)
 number of electron       4.0000000 magnetization
 augmentation part        0.0123296 magnetization

[...]

 Broyden mixing:
  rms(total) = 0.94739E-05    rms(broyden)= 0.94729E-05
  rms(prec ) = 0.19346E-04
  weight for this iteration     100.00

 eigenvalues of (default mixing * dielectric matrix)
  average eigenvalue GAMMA=   1.8647
  1.0091  2.7204

[...]

--------------------------------------- Iteration      6(   4)  ---------------------------------------

 eigenvalue-minimisations  :   768
 total energy-change (2. order) : 0.1066576E-07  (-0.5577373E-09)
 number of electron       4.0000000 magnetization
 augmentation part        0.0123253 magnetization

 Free energy of the ion-electron system (eV)
  alpha Z        PSCENC =         3.93796829
  Ewald energy   TEWEN  =       -58.61332336
  -Hartree energ DENC   =        -0.12193059
  -exchange      EXHF   =         0.00000000
  -V(xc)+E(xc)   XCENC  =       -97.62858060
  PAW double counting   =       118.56300144      -14.84839278
  entropy T*S    EENTRO =        -0.00331982
  eigenvalues    EBANDS =        -0.37518449
  atomic energy  EATOM  =        46.07354693
  Solvation  Ediel_sol  =         0.00000000
  free energy    TOTEN  =        -3.01621496 eV

  energy without entropy =       -3.01289514  energy(sigma->0) =       -3.01455505

 average (electrostatic) potential at core
  the test charge radii are     1.0714
  (the norm of the test charge is              1.0000)
       1 -39.1988       2 -39.1988

 E-fermi :   2.5843     XC(G=0):  -8.5042     alpha+bet : -7.4805

 Fermi energy:         2.5842950055

[...]

 k-point    76 :       0.3333    0.3333    0.4286
  band No.  band energies     occupation
      1       2.7363      0.03161
      2       2.7363      0.03161
      3       2.9596      0.00000
      4       3.7185      0.00000
      5       4.2883      0.00000
      6       4.2883      0.00000
      7      12.8917      0.00000
      8      13.1535      0.00000

 soft charge-density along one line, spin component           1
         0         1         2         3         4         5         6         7         8         9
 total charge-density along one line

------------------------ aborting loop because EDIFF is reached ----------------------------------------

[...]

  FORCE on cell =-STRESS in cart. coord.  units (eV):
  Direction    XX          YY          ZZ          XY          YZ          ZX
  Alpha Z     3.93797     3.93797     3.93797
  Ewald     -19.72660   -19.72660   -19.16017     0.00000     0.00000    -0.00000
  Hartree     0.03746     0.03746     0.04702     0.00000    -0.00000    -0.00000
  E(xc)      -9.69513    -9.69511    -9.70479     0.00002     0.00000     0.00000
  Local      -0.31221    -0.31221    -0.64089     0.00000     0.00000     0.00000
  n-local    13.26496    13.04779    13.21934     0.26474    -0.11832    -0.19542
  augment     0.11715     0.11715     0.11467     0.00000     0.00000     0.00000
  Kinetic    14.64330    10.32218    12.18125     9.14584    -1.83099    -2.49687
  Fock        0.00000     0.00000     0.00000     0.00000     0.00000     0.00000
  Total      -0.00224    -0.00224    -0.00561    -0.00000     0.00000    -0.00000
  in kB      -0.07850    -0.07850    -0.19654    -0.00000     0.00000    -0.00000

 VOLUME and BASIS-vectors are now :
  energy-cutoff  :      400.00
  volume of cell :       45.71
      direct lattice vectors                 reciprocal lattice vectors
     3.209192875  0.000000000  0.000000000     0.311604830  0.179905132  0.000000000
    -1.604596437  2.779242555  0.000000000    -0.000000000  0.359810265  0.000000000
    -0.000000000 -0.000000000  5.125463248    -0.000000000 -0.000000000  0.195104316

  length of vectors
     3.209192875  3.209192875  5.125463248     0.359810265  0.359810265  0.195104316

 FORCES acting on ions
    electron-ion (+dipol)            ewald-force                    non-local-force                 convergence-correction
   0.167E-06 -.961E-07 0.400E-10   0.217E-09 -.174E-09 -.686E-15   -.655E-18 -.824E-17 -.914E-18   -.985E-11 0.569E-11 -.711E-15
   -.166E-06 0.958E-07 0.400E-10   -.217E-09 0.174E-09 0.686E-15   0.969E-17 0.915E-17 0.617E-18   0.985E-11 -.569E-11 0.735E-15
   0.501E-09 -.289E-09 0.800E-10   -.152E-15 0.330E-15 -.423E-19   0.904E-17 0.913E-18 -.297E-18   0.139E-15 -.811E-16 0.243E-16

 POSITION                                       TOTAL-FORCE (eV/Angst)
     -0.00000      1.85283      1.28137        -0.000000      0.000000     -0.000000
      1.60460      0.92641      3.84410         0.000000     -0.000000      0.000000
    total drift:                                0.000000     -0.000000      0.000000

  FREE ENERGIE OF THE ION-ELECTRON SYSTEM (eV)
  free  energy   TOTEN  =        -3.01621496 eV

  energy  without entropy=       -3.01289514  energy(sigma->0) =       -3.01455505

 d Force = 0.0000000E+00[ 0.000E+00, 0.000E+00]  d Energy = 0.6216563E-04-0.622E-04
 d Force = 0.0000000E+00[ 0.000E+00, 0.000E+00]  d Ewald  = 0.1875993E-01-0.188E-01

 stress matrix after NEB project (eV)
     -0.00224     -0.00000     -0.00000
     -0.00000     -0.00224     -0.00000
      0.00000      0.00000     -0.00561
  FORCES: max atom, RMS     0.000000    0.000000
  FORCE total and by dimension    0.000000    0.000000
  Stress total and by dimension    0.006441    0.005608

 reached required accuracy - stopping structural energy minimisation

 total charge

# of ion       s       p       d       tot
    1        0.208   0.128   0.012   0.347
    2        0.208   0.128   0.012   0.347
tot          0.416   0.255   0.023   0.694