 vasp.6.3.1 04May22 (build Jun 07 2022 20:23:04) complex

 executed on             LinuxIFC date 2024.03.28  16:34:45

 INCAR:
   ALGO = Normal
   EDIFF = 1e-05
   ENCUT = 400.0
   IBRION = 2
   ISIF = 0
   ISMEAR = 0
   KPAR = 4
   LASPH = True
   LCHARG = False
   LORBIT = 10
   LREAL = False
   LWAVE = False
   NBANDS = 34
   NELM = 100
   NSW = 1
   PREC = Normal
   SIGMA = 0.1

 POTCAR:    PAW_PBE Ga_d 06Jul2010
 POTCAR:    PAW_PBE N 08Apr2002
|           W    W    AA    RRRRR   N    N  II  N    N   GGGG   !!!           |
|           W    W   A  A   R    R  NN   N  II  NN   N  G    G  !!!           |
|           W    W  A    A  R    R  N N  N  II  N N  N  G       !!!           |
|           W WW W  AAAAAA  RRRRR   N  N N  II  N  N N  G  GGG   !            |
|           WW  WW  A    A  R   R   N   NN  II  N   NN  G    G                |
|           W    W  A    A  R    R  N    N  II  N    N   GGGG   !!!           |
|     For optimal performance we recommend to set                             |
|       NCORE = 2 up to number-of-cores-per-socket                            |
|     This setting can greatly improve the performance of VASP for DFT.       |
|     The default, NCORE=1 might be grossly inefficient on modern             |
|     multi-core architectures or massively parallel machines. Do your        |
|     Unfortunately you need to use the default for GW and RPA                |
|     calculations (for HF NCORE is supported but not extensively tested      |
|     yet).                                                                   |

   TITEL  = PAW_PBE Ga_d 06Jul2010
   POMASS =   69.723; ZVAL   =   13.000    mass and valenz
   ENMAX  =  282.691; ENMIN  =  212.018 eV

   TITEL  = PAW_PBE N 08Apr2002
   POMASS =   14.001; ZVAL   =    5.000    mass and valenz
   ENMAX  =  400.000; ENMIN  =  300.000 eV

  PAW_PBE Ga_d 06Jul2010                :
  PAW_PBE N 08Apr2002                   :

 POSCAR: Ga2 N2
  positions in direct lattice
 exchange correlation table for  LEXCH =        8
   RHO(1)=    0.500       N(1)  =     2000
   RHO(2)=  100.500       N(2)  =     4000

 VTST: version 4.2, (08/11/21)

 CHAIN: initializing optimizer

 OPT: Using VASP Conjugate-Gradient optimizer
 CHAIN: Read ICHAIN            0

 POSCAR: Ga2 N2
  positions in direct lattice

 ion  position               nearest neighbor table
   1  0.333  0.667  0.999-   4 1.95   4 1.95   4 1.95   3 1.96
   2  0.667  0.333  0.499-   3 1.95   3 1.95   3 1.95   4 1.96
   3  0.333  0.667  0.376-   2 1.95   2 1.95   2 1.95   1 1.96
   4  0.667  0.333  0.876-   1 1.95   1 1.95   1 1.95   2 1.96

  LATTYP: Found a hexagonal cell.
 ALAT       =     3.1969218337
 C/A-ratio  =     1.6281816284

  Lattice vectors:

 A1 = (   3.1969218337,   0.0000000000,   0.0000000000)
 A2 = (  -1.5984609169,   2.7686155219,   0.0000000000)
 A3 = (   0.0000000000,   0.0000000000,   5.2051693970)

Analysis of symmetry for initial positions (statically):
 Subroutine PRICEL returns:
 Original cell was already a primitive cell.

 Routine SETGRP: Setting up the symmetry group for a
 hexagonal supercell.

 Subroutine GETGRP returns: Found 12 space group operations
 (whereof  6 operations were pure point group operations)
 out of a pool of 24 trial point group operations.

The static configuration has the point symmetry C_3v.
 The point group associated with its full space group is C_6v.

Analysis of symmetry for dynamics (positions and initial velocities):
 Subroutine PRICEL returns:
 Original cell was already a primitive cell.

 Routine SETGRP: Setting up the symmetry group for a
 hexagonal supercell.

 Subroutine GETGRP returns: Found 12 space group operations
 (whereof  6 operations were pure point group operations)
 out of a pool of 24 trial point group operations.

The dynamic configuration has the point symmetry C_3v.
 The point group associated with its full space group is C_6v.

 Subroutine INISYM returns: Found 12 space group operations
 (whereof  6 operations are pure point group operations),
 and found     1 'primitive' translations

                                     Primitive cell

  volume of cell :      46.0712

  direct lattice vectors                    reciprocal lattice vectors
     3.196921834  0.000000000  0.000000000     0.312800892  0.180595679  0.000000000
    -1.598460917  2.768615522  0.000000000     0.000000000  0.361191358  0.000000000
     0.000000000  0.000000000  5.205169397     0.000000000  0.000000000  0.192116706

  length of vectors
     3.196921834  3.196921834  5.205169397     0.361191358  0.361191358  0.192116706

  position of ions in fractional coordinates (direct lattice)
     0.333333333  0.666666667  0.999137235
     0.666666667  0.333333333  0.499137235
     0.333333333  0.666666667  0.375862765
     0.666666667  0.333333333  0.875862765

  ion indices of the primitive-cell ions
   primitive index   ion index
                 1           1
                 2           2
                 3           3
                 4           4

 KPOINTS: k-path added by seekpath. Formula: GaN S

Read explicit list of k-points.

 Found    388 k-points:

 Following reciprocal coordinates:
            Coordinates               Weight
  0.000000  0.000000  0.062500      0.001736
  0.083333  0.000000  0.062500      0.010417
  0.166667  0.000000  0.062500      0.010417
  0.250000  0.000000  0.062500      0.010417
  0.333333  0.000000  0.062500      0.010417
  0.416667  0.000000  0.062500      0.010417
  0.500000  0.000000  0.062500      0.005208
  0.083333  0.083333  0.062500      0.010417
  0.166667  0.083333  0.062500      0.020833
  0.250000  0.083333  0.062500      0.020833
  0.333333  0.083333  0.062500      0.020833
  0.416667  0.083333  0.062500      0.020833
  0.166667  0.166667  0.062500      0.010417
  0.250000  0.166667  0.062500      0.020833
  0.333333  0.166667  0.062500      0.020833
  0.416667  0.166667  0.062500      0.010417
  0.250000  0.250000  0.062500      0.010417
  0.333333  0.250000  0.062500      0.020833
  0.333333  0.333333  0.062500      0.003472
  0.000000  0.000000  0.187500      0.001736
  0.083333  0.000000  0.187500      0.010417
  0.166667  0.000000  0.187500      0.010417
  0.250000  0.000000  0.187500      0.010417
  0.333333  0.000000  0.187500      0.010417
  0.416667  0.000000  0.187500      0.010417
  0.500000  0.000000  0.187500      0.005208
  0.083333  0.083333  0.187500      0.010417
  0.166667  0.083333  0.187500      0.020833
  0.250000  0.083333  0.187500      0.020833
  0.333333  0.083333  0.187500      0.020833
  0.416667  0.083333  0.187500      0.020833
  0.166667  0.166667  0.187500      0.010417
  0.250000  0.166667  0.187500      0.020833
  0.333333  0.166667  0.187500      0.020833
  0.416667  0.166667  0.187500      0.010417
  0.250000  0.250000  0.187500      0.010417
  0.333333  0.250000  0.187500      0.020833
  0.333333  0.333333  0.187500      0.003472
  0.000000  0.000000  0.312500      0.001736
  0.083333  0.000000  0.312500      0.010417
  0.166667  0.000000  0.312500      0.010417
  0.250000  0.000000  0.312500      0.010417
  0.333333  0.000000  0.312500      0.010417
  0.416667  0.000000  0.312500      0.010417
  0.500000  0.000000  0.312500      0.005208
  0.083333  0.083333  0.312500      0.010417
  0.166667  0.083333  0.312500      0.020833
  0.250000  0.083333  0.312500      0.020833
  0.333333  0.083333  0.312500      0.020833
  0.416667  0.083333  0.312500      0.020833
  0.166667  0.166667  0.312500      0.010417
  0.250000  0.166667  0.312500      0.020833
  0.333333  0.166667  0.312500      0.020833
  0.416667  0.166667  0.312500      0.010417
  0.250000  0.250000  0.312500      0.010417
  0.333333  0.250000  0.312500      0.020833
  0.333333  0.333333  0.312500      0.003472
  0.000000  0.000000  0.437500      0.001736
  0.083333  0.000000  0.437500      0.010417
  0.166667  0.000000  0.437500      0.010417
[...]
  0.333333  0.333333  0.304348      0.000000
  0.333333  0.333333  0.282609      0.000000
  0.333333  0.333333  0.260870      0.000000
  0.333333  0.333333  0.239130      0.000000
  0.333333  0.333333  0.217391      0.000000
  0.333333  0.333333  0.195652      0.000000
  0.333333  0.333333  0.173913      0.000000
  0.333333  0.333333  0.152174      0.000000
  0.333333  0.333333  0.130435      0.000000
  0.333333  0.333333  0.108696      0.000000
  0.333333  0.333333  0.086957      0.000000
  0.333333  0.333333  0.065217      0.000000
  0.333333  0.333333  0.043478      0.000000
  0.333333  0.333333  0.021739      0.000000
  0.333333  0.333333  0.000000      0.000000

 Following cartesian coordinates:
            Coordinates               Weight
  0.000000  0.000000  0.012007      0.001736
  0.026067  0.015050  0.012007      0.010417
  0.052133  0.030099  0.012007      0.010417
  0.078200  0.045149  0.012007      0.010417
  0.104267  0.060199  0.012007      0.010417
  0.130334  0.075248  0.012007      0.010417
  0.156400  0.090298  0.012007      0.005208
  0.026067  0.045149  0.012007      0.010417
  0.052133  0.060199  0.012007      0.020833
  0.078200  0.075248  0.012007      0.020833
  0.104267  0.090298  0.012007      0.020833
  0.130334  0.105347  0.012007      0.020833
  0.052133  0.090298  0.012007      0.010417
  0.078200  0.105347  0.012007      0.020833
  0.104267  0.120397  0.012007      0.020833
  0.130334  0.135447  0.012007      0.010417
  0.078200  0.135447  0.012007      0.010417
  0.104267  0.150496  0.012007      0.020833
  0.104267  0.180596  0.012007      0.003472
  0.000000  0.000000  0.036022      0.001736
  0.026067  0.015050  0.036022      0.010417
  0.052133  0.030099  0.036022      0.010417
  0.078200  0.045149  0.036022      0.010417
  0.104267  0.060199  0.036022      0.010417
  0.130334  0.075248  0.036022      0.010417
  0.156400  0.090298  0.036022      0.005208
  0.026067  0.045149  0.036022      0.010417
  0.052133  0.060199  0.036022      0.020833
  0.078200  0.075248  0.036022      0.020833
  0.104267  0.090298  0.036022      0.020833
  0.130334  0.105347  0.036022      0.020833
  0.052133  0.090298  0.036022      0.010417
  0.078200  0.105347  0.036022      0.020833
  0.104267  0.120397  0.036022      0.020833
  0.130334  0.135447  0.036022      0.010417
  0.078200  0.135447  0.036022      0.010417
  0.104267  0.150496  0.036022      0.020833
  0.104267  0.180596  0.036022      0.003472
  0.000000  0.000000  0.060036      0.001736
  0.026067  0.015050  0.060036      0.010417
  0.052133  0.030099  0.060036      0.010417
  0.078200  0.045149  0.060036      0.010417
  0.104267  0.060199  0.060036      0.010417
  0.130334  0.075248  0.060036      0.010417
  0.156400  0.090298  0.060036      0.005208
  0.026067  0.045149  0.060036      0.010417
  0.052133  0.060199  0.060036      0.020833
  0.078200  0.075248  0.060036      0.020833
  0.104267  0.090298  0.060036      0.020833
  0.130334  0.105347  0.060036      0.020833
  0.052133  0.090298  0.060036      0.010417
  0.078200  0.105347  0.060036      0.020833
  0.104267  0.120397  0.060036      0.020833
  0.130334  0.135447  0.060036      0.010417
  0.078200  0.135447  0.060036      0.010417
  0.104267  0.150496  0.060036      0.020833
[...]
   0.41666667  0.00000000  0.31250000       0.010
   0.50000000  0.00000000  0.31250000       0.005
   0.08333333  0.08333333  0.31250000       0.010
   0.16666667  0.08333333  0.31250000       0.021
   0.25000000  0.08333333  0.31250000       0.021
   0.33333333  0.08333333  0.31250000       0.021
   0.41666667  0.08333333  0.31250000       0.021
   0.16666667  0.16666667  0.31250000       0.010
   0.25000000  0.16666667  0.31250000       0.021
   0.33333333  0.16666667  0.31250000       0.021
   0.41666667  0.16666667  0.31250000       0.010
   0.25000000  0.25000000  0.31250000       0.010
   0.33333333  0.25000000  0.31250000       0.021
   0.33333333  0.33333333  0.31250000       0.003
   0.00000000  0.00000000  0.43750000       0.002
   0.08333333  0.00000000  0.43750000       0.010
   0.16666667  0.00000000  0.43750000       0.010
[...]
   0.33333333  0.33333333  0.30434783       0.000
   0.33333333  0.33333333  0.28260870       0.000
   0.33333333  0.33333333  0.26086957       0.000
   0.33333333  0.33333333  0.23913043       0.000
   0.33333333  0.33333333  0.21739130       0.000
   0.33333333  0.33333333  0.19565217       0.000
   0.33333333  0.33333333  0.17391304       0.000
   0.33333333  0.33333333  0.15217391       0.000
   0.33333333  0.33333333  0.13043478       0.000
   0.33333333  0.33333333  0.10869565       0.000
   0.33333333  0.33333333  0.08695652       0.000
   0.33333333  0.33333333  0.06521739       0.000
   0.33333333  0.33333333  0.04347826       0.000
   0.33333333  0.33333333  0.02173913       0.000
   0.33333333  0.33333333  0.00000000       0.000

 position of ions in fractional coordinates (direct lattice)
   0.33333333  0.66666667  0.99913723
   0.66666667  0.33333333  0.49913723
   0.33333333  0.66666667  0.37586277
   0.66666667  0.33333333  0.87586277

 position of ions in cartesian coordinates  (Angst):
  -0.00000000  1.84574368  5.20067856
   1.59846092  0.92287184  2.59809386
  -0.00000000  1.84574368  1.95642936
   1.59846092  0.92287184  4.55901406

 k-point   1 :   0.0000 0.0000 0.0625  plane waves:     833
 k-point   2 :   0.0833 0.0000 0.0625  plane waves:     829
 k-point   3 :   0.1667 0.0000 0.0625  plane waves:     836
 k-point   4 :   0.2500 0.0000 0.0625  plane waves:     833
 k-point   5 :   0.3333 0.0000 0.0625  plane waves:     838
 k-point   6 :   0.4167 0.0000 0.0625  plane waves:     846
 k-point   7 :   0.5000 0.0000 0.0625  plane waves:     848
 k-point   8 :   0.0833 0.0833 0.0625  plane waves:     832
 k-point   9 :   0.1667 0.0833 0.0625  plane waves:     835
 k-point  10 :   0.2500 0.0833 0.0625  plane waves:     835
 k-point  11 :   0.3333 0.0833 0.0625  plane waves:     839
 k-point  12 :   0.4167 0.0833 0.0625  plane waves:     845
 k-point  13 :   0.1667 0.1667 0.0625  plane waves:     829
 k-point  14 :   0.2500 0.1667 0.0625  plane waves:     837
 k-point  15 :   0.3333 0.1667 0.0625  plane waves:     845
 k-point  16 :   0.4167 0.1667 0.0625  plane waves:     844
 k-point  17 :   0.2500 0.2500 0.0625  plane waves:     835
 k-point  18 :   0.3333 0.2500 0.0625  plane waves:     842
 k-point  19 :   0.3333 0.3333 0.0625  plane waves:     837
 k-point  20 :   0.0000 0.0000 0.1875  plane waves:     845
 k-point  21 :   0.0833 0.0000 0.1875  plane waves:     833
 k-point  22 :   0.1667 0.0000 0.1875  plane waves:     836
 k-point  23 :   0.2500 0.0000 0.1875  plane waves:     839
 k-point  24 :   0.3333 0.0000 0.1875  plane waves:     843
 k-point  25 :   0.4167 0.0000 0.1875  plane waves:     844
 k-point  26 :   0.5000 0.0000 0.1875  plane waves:     842
 k-point  27 :   0.0833 0.0833 0.1875  plane waves:     833
 k-point  28 :   0.1667 0.0833 0.1875  plane waves:     832
 k-point  29 :   0.2500 0.0833 0.1875  plane waves:     836
 k-point  30 :   0.3333 0.0833 0.1875  plane waves:     843
 k-point  31 :   0.4167 0.0833 0.1875  plane waves:     841
 k-point  32 :   0.1667 0.1667 0.1875  plane waves:     833
 k-point  33 :   0.2500 0.1667 0.1875  plane waves:     837
 k-point  34 :   0.3333 0.1667 0.1875  plane waves:     838
 k-point  35 :   0.4167 0.1667 0.1875  plane waves:     837
 k-point  36 :   0.2500 0.2500 0.1875  plane waves:     838
 k-point  37 :   0.3333 0.2500 0.1875  plane waves:     837
 k-point  38 :   0.3333 0.3333 0.1875  plane waves:     837
 k-point  39 :   0.0000 0.0000 0.3125  plane waves:     827
 k-point  40 :   0.0833 0.0000 0.3125  plane waves:     825
 k-point  41 :   0.1667 0.0000 0.3125  plane waves:     833
 k-point  42 :   0.2500 0.0000 0.3125  plane waves:     841
 k-point  43 :   0.3333 0.0000 0.3125  plane waves:     845
 k-point  44 :   0.4167 0.0000 0.3125  plane waves:     845
 k-point  45 :   0.5000 0.0000 0.3125  plane waves:     844
 k-point  46 :   0.0833 0.0833 0.3125  plane waves:     841
 k-point  47 :   0.1667 0.0833 0.3125  plane waves:     837
 k-point  48 :   0.2500 0.0833 0.3125  plane waves:     837
 k-point  49 :   0.3333 0.0833 0.3125  plane waves:     841
 k-point  50 :   0.4167 0.0833 0.3125  plane waves:     837
 k-point  51 :   0.1667 0.1667 0.3125  plane waves:     840
 k-point  52 :   0.2500 0.1667 0.3125  plane waves:     838
 k-point  53 :   0.3333 0.1667 0.3125  plane waves:     835
 k-point  54 :   0.4167 0.1667 0.3125  plane waves:     837
 k-point  55 :   0.2500 0.2500 0.3125  plane waves:     828
 k-point  56 :   0.3333 0.2500 0.3125  plane waves:     830
 k-point  57 :   0.3333 0.3333 0.3125  plane waves:     828
 k-point  58 :   0.0000 0.0000 0.4375  plane waves:     827
 k-point  59 :   0.0833 0.0000 0.4375  plane waves:     839
 k-point  60 :   0.1667 0.0000 0.4375  plane waves:     835
[...]
 k-point 374 :   0.3333 0.3333 0.3043  plane waves:     828
 k-point 375 :   0.3333 0.3333 0.2826  plane waves:     837
 k-point 376 :   0.3333 0.3333 0.2609  plane waves:     837
 k-point 377 :   0.3333 0.3333 0.2391  plane waves:     843
 k-point 378 :   0.3333 0.3333 0.2174  plane waves:     843
 k-point 379 :   0.3333 0.3333 0.1957  plane waves:     837
 k-point 380 :   0.3333 0.3333 0.1739  plane waves:     837
 k-point 381 :   0.3333 0.3333 0.1522  plane waves:     837
 k-point 382 :   0.3333 0.3333 0.1304  plane waves:     837
 k-point 383 :   0.3333 0.3333 0.1087  plane waves:     837
 k-point 384 :   0.3333 0.3333 0.0870  plane waves:     837
 k-point 385 :   0.3333 0.3333 0.0652  plane waves:     837
 k-point 386 :   0.3333 0.3333 0.0435  plane waves:     843
 k-point 387 :   0.3333 0.3333 0.0217  plane waves:     837
 k-point 388 :   0.3333 0.3333 0.0000  plane waves:     831

 maximum and minimum number of plane-waves per node :       860      819

 maximum number of plane-waves:       860
 maximum index in each direction:
   IXMAX=    5   IYMAX=    5   IZMAX=    8
   IXMIN=   -5   IYMIN=   -5   IZMIN=   -8

 serial   3D FFT for wavefunctions
 parallel 3D FFT for charge:
    minimum data exchange during FFTs selected (reduces bandwidth)

 Broyden mixing: mesh for mixing (old mesh)
   NGX = 11   NGY = 11   NGZ = 17
  (NGX  = 32   NGY  = 32   NGZ  = 56)
  gives a total of   2057 points

 initial charge density was supplied:
 charge density of overlapping atoms calculated
 number of electron      36.0000000 magnetization
 keeping initial charge density in first step

 Maximum index for augmentation-charges          694 (set IRDMAX)

 First call to EWALD:  gamma=   0.494
 Maximum number of real-space cells 3x 3x 2
 Maximum number of reciprocal cells 3x 3x 4

--------------------------------------- Iteration      1(   1)  ---------------------------------------

 eigenvalue-minimisations  : 41368
 total energy-change (2. order) : 0.2766891E+03  (-0.1256592E+04)
 number of electron      36.0000000 magnetization
 augmentation part       36.0000000 magnetization

 Free energy of the ion-electron system (eV)
  alpha Z        PSCENC =       196.01275012
  Ewald energy   TEWEN  =     -3164.64982264
  -Hartree energ DENC   =     -1160.63656742
  -exchange      EXHF   =         0.00000000
  -V(xc)+E(xc)   XCENC  =       128.72756563
  PAW double counting   =      3616.17691320    -4285.66495278
  entropy T*S    EENTRO =        -0.00387559
  eigenvalues    EBANDS =       120.13780440
  atomic energy  EATOM  =      4826.58925392
  Solvation  Ediel_sol  =         0.00000000
  free energy    TOTEN  =       276.68906885 eV

  energy without entropy =      276.69294444  energy(sigma->0) =      276.69100664

[...]

 eigenvalue-minimisations  : 31472
 total energy-change (2. order) :-0.2668830E+03  (-0.2380412E+03)
 number of electron      36.0000000 magnetization
 augmentation part       36.0000000 magnetization

[...]

 Broyden mixing:
  rms(total) = 0.10826E+01    rms(broyden)= 0.10824E+01
  rms(prec ) = 0.23213E+01
  weight for this iteration     100.00

[...]

 eigenvalues of (default mixing * dielectric matrix)
  average eigenvalue GAMMA=   0.9230
  0.9230

[...]

 eigenvalue-minimisations  : 35536
 total energy-change (2. order) :-0.8399849E-03  (-0.8337939E-03)
 number of electron      36.0000018 magnetization
 augmentation part       17.3957165 magnetization

[...]

 Broyden mixing:
  rms(total) = 0.91948E-02    rms(broyden)= 0.91923E-02
  rms(prec ) = 0.95509E-02
  weight for this iteration     100.00

 eigenvalues of (default mixing * dielectric matrix)
  average eigenvalue GAMMA=   1.6845
  2.9034  2.5580  1.6872  1.6872  1.0114  1.0114  0.9330

[...]

--------------------------------------- Iteration      1(  13)  ---------------------------------------

 eigenvalue-minimisations  : 34896
 total energy-change (2. order) : 0.2635033E-05  (-0.2327533E-05)
 number of electron      36.0000018 magnetization
 augmentation part       17.3959051 magnetization

 Free energy of the ion-electron system (eV)
  alpha Z        PSCENC =       196.01275012
  Ewald energy   TEWEN  =     -3164.64982264
  -Hartree energ DENC   =     -1165.56220542
  -exchange      EXHF   =         0.00000000
  -V(xc)+E(xc)   XCENC  =       129.95236448
  PAW double counting   =      4475.04950529    -5152.28439389
  entropy T*S    EENTRO =        -0.00000000
  eigenvalues    EBANDS =      -169.42729153
  atomic energy  EATOM  =      4826.58925392
  Solvation  Ediel_sol  =         0.00000000
  free energy    TOTEN  =       -24.31983967 eV

  energy without entropy =      -24.31983967  energy(sigma->0) =      -24.31983967

 average (electrostatic) potential at core
  the test charge radii are     1.0314  0.7089
  (the norm of the test charge is              1.0000)
       1 -63.5772       2 -63.5772       3 -62.1506       4 -62.1506

 E-fermi :   5.7025     XC(G=0): -11.6256     alpha+bet :-13.2930

 Fermi energy:         5.7025249424

 k-point     1 :       0.0000    0.0000    0.0625
  band No.  band energies     occupation
      1     -10.6754      2.00000
      2      -9.7949      2.00000
      3      -8.1968      2.00000
      4      -8.1845      2.00000
      5      -8.1845      2.00000
      6      -8.1258      2.00000
      7      -8.1258      2.00000
      8      -7.9367      2.00000
      9      -7.9367      2.00000
     10      -7.8431      2.00000
     11      -7.8431      2.00000
     12      -6.6567      2.00000
     13      -1.6939      2.00000
     14       4.2158      2.00000
     15       4.2164      2.00000
     16       5.0525      2.00000
     17       5.2230      2.00000
     18       5.2236      2.00000
     19       7.2104      0.00000
     20       9.4297      0.00000
     21      14.3632      0.00000
     22      15.0769      0.00000
     23      15.0769      0.00000
     24      15.7937      0.00000
     25      16.8352      0.00000
     26      16.8354      0.00000
     27      19.8343      0.00000
     28      20.9468      0.00000
     29      20.9468      0.00000
     30      23.1864      0.00000
     31      23.1864      0.00000
     32      23.3102      0.00000
     33      23.5041      0.00000
     34      26.7975      0.00000
     35      29.3953      0.00000
     36      29.3957      0.00000
     37      31.9000      0.00000
     38      33.3436      0.00000
     39      33.3441      0.00000
     40      34.1446      0.00000

[...]

 k-point   388 :       0.3333    0.3333    0.0000
  band No.  band energies     occupation
      1      -9.6678      2.00000
      2      -9.6678      2.00000
      3      -8.1859      2.00000
      4      -7.9835      2.00000
      5      -7.9835      2.00000
      6      -7.9684      2.00000
      7      -7.9532      2.00000
      8      -7.9532      2.00000
      9      -7.9069      2.00000
     10      -7.8616      2.00000
     11      -6.1899      2.00000
     12      -6.1899      2.00000
     13      -0.0894      2.00000
     14      -0.0894      2.00000
     15       0.0105      2.00000
     16       2.2864      2.00000
     17       2.2864      2.00000
     18       2.5382      2.00000
     19      10.4072      0.00000
     20      12.9565      0.00000
     21      12.9565      0.00000
     22      13.6363      0.00000
     23      15.0386      0.00000
     24      15.0386      0.00000
     25      17.6939      0.00000
     26      17.6939      0.00000
     27      18.1726      0.00000
     28      23.5884      0.00000
     29      23.5884      0.00000
     30      24.1104      0.00000
     31      25.6321      0.00000
     32      27.5977      0.00000
     33      29.1964      0.00000
     34      29.1964      0.00000
     35      30.9434      0.00000
     36      31.3467      0.00000
     37      31.3467      0.00000
     38      31.5282      0.00000
     39      33.6454      0.00000
     40      33.6454      0.00000

 soft charge-density along one line, spin component           1
         0         1         2         3         4         5         6         7         8         9
 total charge-density along one line

------------------------ aborting loop because EDIFF is reached ----------------------------------------

 total charge

# of ion       s       p       d       tot
    1        0.786   0.888  10.175  11.848
    2        0.786   0.888  10.175  11.848
    3        1.238   2.468   0.000   3.705
    4        1.238   2.468   0.000   3.705
tot          4.047   6.710  20.350  31.108

 VOLUME and BASIS-vectors are now :
  energy-cutoff  :      400.00
  volume of cell :       46.07
      direct lattice vectors                 reciprocal lattice vectors
     3.196921834  0.000000000  0.000000000     0.312800892  0.180595679  0.000000000
    -1.598460917  2.768615522  0.000000000     0.000000000  0.361191358  0.000000000
     0.000000000  0.000000000  5.205169397     0.000000000  0.000000000  0.192116706

  length of vectors
     3.196921834  3.196921834  5.205169397     0.361191358  0.361191358  0.192116706

 FORCES acting on ions
    electron-ion (+dipol)            ewald-force                    non-local-force                 convergence-correction
   -.825E-04 -.749E-04 -.374E+01   0.916E-07 -.475E-07 0.372E+01   0.490E-16 0.188E-17 0.137E-01   0.103E-06 -.544E-07 -.638E-04
   -.237E-04 -.109E-03 -.374E+01   -.916E-07 0.475E-07 0.372E+01   -.922E-16 -.352E-17 0.137E-01   -.984E-07 0.617E-07 -.638E-04
   -.279E-04 0.239E-04 0.349E+01   0.819E-07 -.428E-07 -.372E+01   0.322E-17 0.118E-17 0.241E+00   -.167E-07 0.966E-08 0.160E-03
   0.346E-04 -.122E-04 0.349E+01   -.819E-07 0.428E-07 -.372E+01   -.345E-17 -.563E-17 0.241E+00   0.167E-07 -.967E-08 0.160E-03
   -.995E-04 -.172E-03 -.504E+00   -.867E-14 0.193E-14 0.178E-14   -.434E-16 -.609E-17 0.509E+00   0.423E-08 0.733E-08 0.193E-03

 POSITION                                       TOTAL-FORCE (eV/Angst)
     -0.00000      1.84574      5.20068        -0.000000     -0.000000     -0.000486
      1.59846      0.92287      2.59809        -0.000000     -0.000000     -0.000486
     -0.00000      1.84574      1.95643         0.000000     -0.000000      0.000486
      1.59846      0.92287      4.55901        -0.000000      0.000000      0.000486
    total drift:                               -0.000099     -0.000172      0.005435

  FREE ENERGIE OF THE ION-ELECTRON SYSTEM (eV)
  free  energy   TOTEN  =       -24.31983967 eV

  energy  without entropy=      -24.31983967  energy(sigma->0) =      -24.31983967

 stress matrix after NEB project (eV)
      0.00000      0.00000      0.00000
      0.00000      0.00000      0.00000
      0.00000      0.00000      0.00000
  FORCES: max atom, RMS     0.000486    0.000486
  FORCE total and by dimension    0.000973    0.000486
  Stress total and by dimension    0.000000    0.000000

 reached required accuracy - stopping structural energy minimisation

 total charge

# of ion       s       p       d       tot
    1        0.786   0.888  10.175  11.848
    2        0.786   0.888  10.175  11.848
    3        1.238   2.468   0.000   3.705
    4        1.238   2.468   0.000   3.705
tot          4.047   6.710  20.350  31.108