 vasp.6.3.1 04May22 (build Jun 07 2022 20:23:04) complex

 executed on             LinuxIFC date 2024.04.20  16:34:20

 INCAR:
   ALGO = Normal
   PREC = Normal
   LREAL = False
   EDIFF = 1e-07
   ENCUT = 400.0
   LASPH = True
   NELM = 100
   ISIF = 3
   IBRION = 2
   EDIFFG = -0.005
   NSW = 20
   ISMEAR = 0
   SIGMA = 0.1
   LWAVE = False
   LCHARG = False
   LORBIT = 10
   KPAR = 4

 POTCAR:    PAW_PBE Ga_d 06Jul2010
|           W    W    AA    RRRRR   N    N  II  N    N   GGGG   !!!           |
|           W    W   A  A   R    R  NN   N  II  NN   N  G    G  !!!           |
|           W    W  A    A  R    R  N N  N  II  N N  N  G       !!!           |
|           W WW W  AAAAAA  RRRRR   N  N N  II  N  N N  G  GGG   !            |
|           WW  WW  A    A  R   R   N   NN  II  N   NN  G    G                |
|           W    W  A    A  R    R  N    N  II  N    N   GGGG   !!!           |
|     For optimal performance we recommend to set                             |
|       NCORE = 2 up to number-of-cores-per-socket                            |
|     This setting can greatly improve the performance of VASP for DFT.       |
|     The default, NCORE=1 might be grossly inefficient on modern             |
|     multi-core architectures or massively parallel machines. Do your        |
|     Unfortunately you need to use the default for GW and RPA                |
|     calculations (for HF NCORE is supported but not extensively tested      |
|     yet).                                                                   |

   TITEL  = PAW_PBE Ga_d 06Jul2010
   POMASS =   69.723; ZVAL   =   13.000    mass and valenz
   ENMAX  =  282.691; ENMIN  =  212.018 eV

  PAW_PBE Ga_d 06Jul2010                :

 POSCAR: Ga4
  positions in direct lattice
 exchange correlation table for  LEXCH =        8
   RHO(1)=    0.500       N(1)  =     2000
   RHO(2)=  100.500       N(2)  =     4000

 VTST: version 4.2, (08/11/21)

 CHAIN: initializing optimizer

 OPT: Using VASP Conjugate-Gradient optimizer
 CHAIN: Read ICHAIN            0

 POSCAR: Ga4
  positions in direct lattice

 ion  position               nearest neighbor table
   1  0.656  0.344  0.415-   3 2.49   4 2.68   4 2.68   2 2.69   2 2.69   3 2.75   3 2.75
   2  0.844  0.156  0.915-   4 2.49   3 2.68   3 2.68   1 2.69   1 2.69   4 2.75   4 2.75
   3  0.344  0.656  0.585-   1 2.49   2 2.68   2 2.68   4 2.69   4 2.69   1 2.75   1 2.75
   4  0.156  0.844  0.085-   2 2.49   1 2.68   1 2.68   3 2.69   3 2.69   2 2.75   2 2.75

  LATTYP: Found a base centered orthorhombic cell.
 ALAT       =     4.4320466608
 B/A-ratio  =     1.7143284495
 C/A-ratio  =     1.0278554985

  Lattice vectors:

 A1 = (   2.2160233304,  -3.7989918401,   0.0000000000)
 A2 = (   2.2160233304,   3.7989918401,   0.0000000000)
 A3 = (   0.0000000000,   0.0000000000,   4.5555035300)

Analysis of symmetry for initial positions (statically):
 Subroutine PRICEL returns:
 Original cell was already a primitive cell.

 Routine SETGRP: Setting up the symmetry group for a
 base centered orthorhombic supercell.

 Subroutine GETGRP returns: Found  8 space group operations
 (whereof  4 operations were pure point group operations)
 out of a pool of  8 trial point group operations.

The static configuration has the point symmetry C_2h.
 The point group associated with its full space group is D_2h.

Analysis of symmetry for dynamics (positions and initial velocities):
 Subroutine PRICEL returns:
 Original cell was already a primitive cell.

 Routine SETGRP: Setting up the symmetry group for a
 base centered orthorhombic supercell.

 Subroutine GETGRP returns: Found  8 space group operations
 (whereof  4 operations were pure point group operations)
 out of a pool of  8 trial point group operations.

The dynamic configuration has the point symmetry C_2h.
 The point group associated with its full space group is D_2h.

 Subroutine INISYM returns: Found  8 space group operations
 (whereof  4 operations are pure point group operations),
 and found     1 'primitive' translations

                                     Primitive cell

  volume of cell :      76.7024

  direct lattice vectors                    reciprocal lattice vectors
     2.216023330 -3.798991840  0.000000000     0.225629393 -0.131613865  0.000000000
     2.216023330  3.798991840  0.000000000     0.225629393  0.131613865  0.000000000
     0.000000000  0.000000000  4.555503530     0.000000000  0.000000000  0.219514702

  length of vectors
     4.398078944  4.398078944  4.555503530     0.261210323  0.261210323  0.219514702

  position of ions in fractional coordinates (direct lattice)
     0.655695720  0.344304280  0.415401390
     0.844304280  0.155695720  0.915401390
     0.344304280  0.655695720  0.584598610
     0.155695720  0.844304280  0.084598610

  ion indices of the primitive-cell ions
   primitive index   ion index
                 1           1
                 2           2
                 3           3
                 4           4

 KPOINTS: Num irrep kpoints: 100

Automatic generation of k-mesh.
 Grid dimensions read from file:
 generate k-points for:    9    9    7

 Generating k-lattice:

  Cartesian coordinates                     Fractional coordinates (reciprocal lattice)
     0.025069933 -0.014623763  0.000000000     0.111111111  0.000000000  0.000000000
     0.025069933  0.014623763  0.000000000     0.000000000  0.111111111  0.000000000
     0.000000000  0.000000000  0.031359243     0.000000000  0.000000000  0.142857143

  Length of vectors
     0.029023369  0.029023369  0.031359243

  Shift w.r.t. Gamma in fractional coordinates (k-lattice)
     0.000000000  0.000000000  0.000000000

 Subroutine IBZKPT returns following result:

 Found    100 irreducible k-points:

 Following reciprocal coordinates:
            Coordinates               Weight
  0.000000  0.000000  0.000000      1.000000
  0.111111 -0.000000  0.000000      4.000000
  0.222222 -0.000000  0.000000      4.000000
  0.333333 -0.000000  0.000000      4.000000
  0.444444 -0.000000  0.000000      4.000000
  0.111111  0.111111  0.000000      2.000000
  0.222222  0.111111  0.000000      4.000000
  0.333333  0.111111  0.000000      4.000000
  0.444444  0.111111  0.000000      4.000000
 -0.444444  0.111111  0.000000      4.000000
 -0.333333  0.111111  0.000000      4.000000
 -0.222222  0.111111  0.000000      4.000000
 -0.111111  0.111111  0.000000      2.000000
  0.222222  0.222222  0.000000      2.000000
  0.333333  0.222222  0.000000      4.000000
  0.444444  0.222222  0.000000      4.000000
 -0.444444  0.222222  0.000000      4.000000
 -0.333333  0.222222  0.000000      4.000000
 -0.222222  0.222222  0.000000      2.000000
  0.333333  0.333333  0.000000      2.000000
  0.444444  0.333333  0.000000      4.000000
 -0.444444  0.333333  0.000000      4.000000
 -0.333333  0.333333  0.000000      2.000000
  0.444444  0.444444  0.000000      2.000000
 -0.444444  0.444444  0.000000      2.000000
  0.000000  0.000000  0.142857      2.000000
  0.111111 -0.000000  0.142857      8.000000
  0.222222 -0.000000  0.142857      8.000000
  0.333333 -0.000000  0.142857      8.000000
  0.444444 -0.000000  0.142857      8.000000
  0.111111  0.111111  0.142857      4.000000
  0.222222  0.111111  0.142857      8.000000
  0.333333  0.111111  0.142857      8.000000
  0.444444  0.111111  0.142857      8.000000
 -0.444444  0.111111  0.142857      8.000000
 -0.333333  0.111111  0.142857      8.000000
 -0.222222  0.111111  0.142857      8.000000
 -0.111111  0.111111  0.142857      4.000000
  0.222222  0.222222  0.142857      4.000000
  0.333333  0.222222  0.142857      8.000000
  0.444444  0.222222  0.142857      8.000000
 -0.444444  0.222222  0.142857      8.000000
 -0.333333  0.222222  0.142857      8.000000
 -0.222222  0.222222  0.142857      4.000000
  0.333333  0.333333  0.142857      4.000000
  0.444444  0.333333  0.142857      8.000000
 -0.444444  0.333333  0.142857      8.000000
 -0.333333  0.333333  0.142857      4.000000
  0.444444  0.444444  0.142857      4.000000
 -0.444444  0.444444  0.142857      4.000000
  0.000000  0.000000  0.285714      2.000000
  0.111111 -0.000000  0.285714      8.000000
  0.222222 -0.000000  0.285714      8.000000
  0.333333 -0.000000  0.285714      8.000000
  0.444444 -0.000000  0.285714      8.000000
  0.111111  0.111111  0.285714      4.000000
  0.222222  0.111111  0.285714      8.000000
  0.333333  0.111111  0.285714      8.000000
  0.444444  0.111111  0.285714      8.000000
 -0.444444  0.111111  0.285714      8.000000
[...]
 -0.333333  0.111111  0.428571      8.000000
 -0.222222  0.111111  0.428571      8.000000
 -0.111111  0.111111  0.428571      4.000000
  0.222222  0.222222  0.428571      4.000000
  0.333333  0.222222  0.428571      8.000000
  0.444444  0.222222  0.428571      8.000000
 -0.444444  0.222222  0.428571      8.000000
 -0.333333  0.222222  0.428571      8.000000
 -0.222222  0.222222  0.428571      4.000000
  0.333333  0.333333  0.428571      4.000000
  0.444444  0.333333  0.428571      8.000000
 -0.444444  0.333333  0.428571      8.000000
 -0.333333  0.333333  0.428571      4.000000
  0.444444  0.444444  0.428571      4.000000
 -0.444444  0.444444  0.428571      4.000000

 Following cartesian coordinates:
            Coordinates               Weight
  0.000000  0.000000  0.000000      1.000000
  0.025070 -0.014624  0.000000      4.000000
  0.050140 -0.029248  0.000000      4.000000
  0.075210 -0.043871  0.000000      4.000000
  0.100280 -0.058495  0.000000      4.000000
  0.050140 -0.000000  0.000000      2.000000
  0.075210 -0.014624  0.000000      4.000000
  0.100280 -0.029248  0.000000      4.000000
  0.125350 -0.043871  0.000000      4.000000
 -0.075210  0.073119  0.000000      4.000000
 -0.050140  0.058495  0.000000      4.000000
 -0.025070  0.043871  0.000000      4.000000
  0.000000  0.029248  0.000000      2.000000
  0.100280  0.000000  0.000000      2.000000
  0.125350 -0.014624  0.000000      4.000000
  0.150420 -0.029248  0.000000      4.000000
 -0.050140  0.087743  0.000000      4.000000
 -0.025070  0.073119  0.000000      4.000000
  0.000000  0.058495  0.000000      2.000000
  0.150420  0.000000  0.000000      2.000000
  0.175490 -0.014624  0.000000      4.000000
 -0.025070  0.102366  0.000000      4.000000
 -0.000000  0.087743  0.000000      2.000000
  0.200559  0.000000  0.000000      2.000000
  0.000000  0.116990  0.000000      2.000000
  0.000000  0.000000  0.031359      2.000000
  0.025070 -0.014624  0.031359      8.000000
  0.050140 -0.029248  0.031359      8.000000
  0.075210 -0.043871  0.031359      8.000000
  0.100280 -0.058495  0.031359      8.000000
  0.050140 -0.000000  0.031359      4.000000
  0.075210 -0.014624  0.031359      8.000000
  0.100280 -0.029248  0.031359      8.000000
  0.125350 -0.043871  0.031359      8.000000
 -0.075210  0.073119  0.031359      8.000000
 -0.050140  0.058495  0.031359      8.000000
 -0.025070  0.043871  0.031359      8.000000
  0.000000  0.029248  0.031359      4.000000
  0.100280  0.000000  0.031359      4.000000
  0.125350 -0.014624  0.031359      8.000000
  0.150420 -0.029248  0.031359      8.000000
 -0.050140  0.087743  0.031359      8.000000
[...]
       1 -65.2650       2 -65.2650       3 -65.2650       4 -65.2650

 E-fermi :   5.2340     XC(G=0): -10.7520     alpha+bet :-11.4379

 Fermi energy:         5.2340398235

 k-point     1 :       0.0000    0.0000    0.0000
  band No.  band energies     occupation
      1      -9.9750      2.00000
      2      -9.9573      2.00000
      3      -9.9183      2.00000
      4      -9.9093      2.00000
      5      -9.9030      2.00000
      6      -9.8688      2.00000
      7      -9.8034      2.00000
      8      -9.7514      2.00000
      9      -9.7185      2.00000
     10      -9.7007      2.00000
     11      -9.6928      2.00000
     12      -9.6900      2.00000
     13      -9.6704      2.00000
     14      -9.6433      2.00000
     15      -9.6036      2.00000
     16      -9.5578      2.00000
     17      -9.5077      2.00000
     18      -9.4972      2.00000
     19      -9.4579      2.00000
     20      -9.3893      2.00000
     21      -5.9741      2.00000
     22       0.8532      2.00000
     23       1.2699      2.00000
     24       3.5605      2.00000
     25       3.7834      2.00000
     26       4.4822      2.00000
     27       6.2260      0.00000
     28       6.2616      0.00000
     29       6.3898      0.00000
     30      10.4717      0.00000
     31      10.6153      0.00000
     32      11.8542      0.00000

[...]

 soft charge-density along one line, spin component           1
         0         1         2         3         4         5         6         7         8         9
 total charge-density along one line

------------------------ aborting loop because EDIFF is reached ----------------------------------------

 total charge

# of ion       s       p       d       tot
    1        0.953   0.729   9.960  11.641
    2        0.953   0.729   9.960  11.641
    3        0.953   0.729   9.960  11.641
    4        0.953   0.729   9.960  11.641
tot          3.811   2.917  39.838  46.566

  FORCE on cell =-STRESS in cart. coord.  units (eV):
  Direction    XX          YY          ZZ          XY          YZ          ZX
  Alpha Z   281.68605   281.68605   281.68605
  Ewald   -1559.72795 -1850.80647 -1653.48724     0.00000    -0.00000    -0.00000
  Hartree   853.87791   637.34928   791.94570     0.00000    -0.00000    -0.00000
  E(xc)    -313.76638  -313.74540  -313.81317     0.00000    -0.00000     0.00000
  Local     -44.00412   458.73594   109.96743     0.00000    -0.00000     0.00000
  n-local    39.06792    41.89376    39.55213     0.83024     0.32921    -0.08272
  augment   487.99026   488.27541   488.16907     0.00000    -0.00000    -0.00000
  Kinetic   256.74298   257.93087   256.98728     2.92189     1.42560    -0.77183
  Fock        0.00000     0.00000     0.00000     0.00000     0.00000     0.00000
  Total       1.86667     1.31944     1.00726     0.00000    -0.00000     0.00000
  in kB      38.99152    27.56068    21.03978     0.00000    -0.00000     0.00000

 VOLUME and BASIS-vectors are now :
  energy-cutoff  :      400.00
  volume of cell :       76.70
      direct lattice vectors                 reciprocal lattice vectors
     2.216023330 -3.798991840  0.000000000     0.225629393 -0.131613865  0.000000000
     2.216023330  3.798991840  0.000000000     0.225629393  0.131613865  0.000000000
     0.000000000  0.000000000  4.555503530     0.000000000  0.000000000  0.219514702

[...]

 FORCES acting on ions
    electron-ion (+dipol)            ewald-force                    non-local-force                 convergence-correction
   -.186E-05 -.752E+02 -.880E+01   -.200E-13 0.800E+02 0.101E+02   -.280E-16 -.469E+01 -.126E+01   -.270E-13 -.536E-03 0.136E-03
   -.186E-05 0.752E+02 -.880E+01   0.284E-13 -.800E+02 0.101E+02   0.504E-17 0.469E+01 -.126E+01   -.102E-12 0.536E-03 0.136E-03
   0.186E-05 0.752E+02 0.880E+01   0.154E-13 -.800E+02 -.101E+02   -.158E-16 0.469E+01 0.126E+01   -.340E-15 0.536E-03 -.136E-03
   0.186E-05 -.752E+02 0.880E+01   -.264E-13 0.800E+02 -.101E+02   0.949E-16 -.469E+01 0.126E+01   0.157E-12 -.536E-03 -.136E-03
   0.184E-11 0.915E-12 0.121E-10   -.259E-14 0.000E+00 0.000E+00   0.561E-16 0.000E+00 0.222E-15   0.267E-13 0.639E-13 0.134E-12

 POSITION                                       TOTAL-FORCE (eV/Angst)
      2.21602     -1.18297      1.89236         0.000000      0.029681      0.020549
      2.21602     -2.61602      4.17011        -0.000000     -0.029681      0.020549
      2.21602      1.18297      2.66314         0.000000     -0.029681     -0.020549
      2.21602      2.61602      0.38539         0.000000      0.029681     -0.020549
    total drift:                                0.000000      0.000000      0.000000

  FREE ENERGIE OF THE ION-ELECTRON SYSTEM (eV)
  free  energy   TOTEN  =       -11.57120237 eV

  energy  without entropy=      -11.56737485  energy(sigma->0) =      -11.56928861

 stress matrix after NEB project (eV)
      1.86667      0.00000      0.00000
      0.00000      1.31944      0.00000
      0.00000     -0.00000      1.00726
  FORCES: max atom, RMS     0.036100    0.036100
  FORCE total and by dimension    0.072200    0.029681
  Stress total and by dimension    2.497989    1.866675

[...]

 d Force = 0.9492634E-04[-0.653E-04, 0.255E-03]  d Energy = 0.3727688E-01-0.372E-01
 d Force = 0.4889463E+00[ 0.472E+00, 0.506E+00]  d Ewald  =-0.8276941E+02 0.833E+02

 stress matrix after NEB project (eV)
      0.29854      0.00000      0.00000
      0.00000     -0.00991      0.00000
      0.00000     -0.00000     -0.30795
  FORCES: max atom, RMS     0.019993    0.019993
  FORCE total and by dimension    0.039986    0.017674
  Stress total and by dimension    0.429013    0.307946
 Steepest descent step on ions:
 trial-energy change:   -0.037277  1 .order   -0.039134   -0.075509   -0.002758
  (g-gl).g = 0.755E-01      g.g   = 0.755E-01  gl.gl    = 0.000E+00
 g(Force)  = 0.251E-03   g(Stress)= 0.753E-01 ortho     = 0.000E+00
 gamma     =   0.00000
 trial     =   1.00000
 opt step  =   1.04514  (harmonic =   1.03791) maximal distance =0.00149651
 next E    =   -11.608541   (d E  =  -0.03734)

[...]

 d Force =-0.3257486E-05[-0.362E-05,-0.290E-05]  d Energy = 0.4621186E-04-0.495E-04
 d Force = 0.2096533E-01[ 0.209E-01, 0.210E-01]  d Ewald  =-0.3672110E+01 0.369E+01

[...]

 d Force = 0.7348166E-04[ 0.566E-04, 0.903E-04]  d Energy = 0.2260021E-02-0.219E-02
 d Force =-0.2641683E+00[-0.267E+00,-0.262E+00]  d Ewald  = 0.9991330E+00-0.126E+01

 stress matrix after NEB project (eV)
      0.22195      0.00000      0.00000
      0.00000     -0.02932      0.00000
      0.00000      0.00000     -0.28850
  FORCES: max atom, RMS     0.013783    0.013783
  FORCE total and by dimension    0.027566    0.011671
  Stress total and by dimension    0.365176    0.288501
 Conjugate gradient step on ions:
 trial-energy change:   -0.002260  1 .order   -0.002256   -0.002463   -0.002050
  (g-gl).g = 0.288E-02      g.g   = 0.246E-02  gl.gl    = 0.755E-01
 g(Force)  = 0.926E-04   g(Stress)= 0.236E-02 ortho     =-0.419E-03
 gamma     =   0.03809
 trial     =   1.00903
 opt step  =   4.03611  (harmonic =   6.01313) maximal distance =0.00368728
 next E    =   -11.615865   (d E  =  -0.00734)

[...]

 d Force = 0.1888241E-04[-0.132E-03, 0.170E-03]  d Energy = 0.3650295E-02-0.363E-02
 d Force =-0.8222853E+00[-0.845E+00,-0.800E+00]  d Ewald  = 0.3107230E+01-0.393E+01

[...]

 d Force =-0.1687282E-04[-0.193E-04,-0.145E-04]  d Energy = 0.1938336E-04-0.363E-04
 d Force =-0.9310755E-01[-0.934E-01,-0.928E-01]  d Ewald  = 0.3504912E+00-0.444E+00

[...]

 d Force = 0.4350590E-05[ 0.411E-05, 0.459E-05]  d Energy = 0.4050431E-05 0.300E-06
 d Force = 0.2221248E-01[ 0.222E-01, 0.222E-01]  d Ewald  =-0.8357083E-01 0.106E+00

[...]

 stress matrix after NEB project (eV)
     -0.08877      0.00000      0.00000
      0.00000     -0.03762      0.00000
      0.00000     -0.00000     -0.05785
  FORCES: max atom, RMS     0.001286    0.001286
  FORCE total and by dimension    0.002572    0.001274
  Stress total and by dimension    0.112441    0.088773
 Conjugate gradient step on ions:
 trial-energy change:   -0.000071  1 .order   -0.000025   -0.000258    0.000208
  (g-gl).g = 0.281E-03      g.g   = 0.157E-03  gl.gl    = 0.246E-02
 g(Force)  = 0.496E-04   g(Stress)= 0.107E-03 ortho     =-0.145E-04
 gamma     =   0.11438
 trial     =   1.66511
 opt step  =   1.13725  (harmonic =   0.92133) maximal distance =0.00074516
 next E    =   -11.614562   (d E  =  -0.00010)

[...]

 d Force = 0.1713175E-05[ 0.142E-05, 0.200E-05]  d Energy =-0.4456297E-06 0.216E-05
 d Force = 0.2424162E-01[ 0.242E-01, 0.243E-01]  d Ewald  =-0.3299472E+00 0.354E+00

[...]

 d Force =-0.1806984E-06[-0.184E-06,-0.178E-06]  d Energy = 0.7332346E-08-0.188E-06
 d Force =-0.2361431E-02[-0.236E-02,-0.236E-02]  d Ewald  = 0.3214159E-01-0.345E-01

[...]

 d Force = 0.1030128E-06[ 0.934E-07, 0.113E-06]  d Energy = 0.4470439E-07 0.583E-07
 d Force = 0.1449214E-02[ 0.145E-02, 0.145E-02]  d Ewald  =-0.1972486E-01 0.212E-01

 stress matrix after NEB project (eV)
     -0.02053      0.00000      0.00000
      0.00000      0.01423      0.00000
      0.00000      0.00000     -0.01092
  FORCES: max atom, RMS     0.005066    0.005066
  FORCE total and by dimension    0.010132    0.005031
  Stress total and by dimension    0.027264    0.020534

[...]

 eigenvalue-minimisations  :  6856
 total energy-change (2. order) :-0.1694731E-05  (-0.2361791E-05)
 number of electron      51.9999873 magnetization
 augmentation part       33.6035765 magnetization

[...]

 Broyden mixing:
  rms(total) = 0.12758E-03    rms(broyden)= 0.12757E-03
  rms(prec ) = 0.20354E-03
  weight for this iteration     100.00

 eigenvalues of (default mixing * dielectric matrix)
  average eigenvalue GAMMA=   1.5946
  2.4417  1.6733  0.8837  1.3797

[...]

--------------------------------------- Iteration     14(   6)  ---------------------------------------

 eigenvalue-minimisations  :  5144
 total energy-change (2. order) : 0.1658464E-07  (-0.2169819E-07)
 number of electron      51.9999873 magnetization
 augmentation part       33.6034652 magnetization

 Free energy of the ion-electron system (eV)
  alpha Z        PSCENC =       267.47872274
  Ewald energy   TEWEN  =     -4978.90467855
  -Hartree energ DENC   =     -2334.36927106
  -exchange      EXHF   =         0.00000000
  -V(xc)+E(xc)   XCENC  =       174.78160736
  PAW double counting   =      6883.17759102    -8218.28040931
  entropy T*S    EENTRO =        -0.00312388
  eigenvalues    EBANDS =      -400.77349950
  atomic energy  EATOM  =      8595.27849819
  Solvation  Ediel_sol  =         0.00000000
  free energy    TOTEN  =       -11.61456299 eV

  energy without entropy =      -11.61143910  energy(sigma->0) =      -11.61300105

 average (electrostatic) potential at core
  the test charge radii are     1.0314
  (the norm of the test charge is              1.0000)
       1 -65.6741       2 -65.6741       3 -65.6741       4 -65.6741

 E-fermi :   4.7255     XC(G=0): -10.4994     alpha+bet :-10.8610

 Fermi energy:         4.7255165724

[...]

 k-point   100 :      -0.4444    0.4444    0.4286
  band No.  band energies     occupation
      1     -10.3663      2.00000
      2     -10.3399      2.00000
      3     -10.2851      2.00000
      4     -10.2761      2.00000
      5     -10.2757      2.00000
      6     -10.2597      2.00000
      7     -10.2253      2.00000
      8     -10.1969      2.00000
      9     -10.1450      2.00000
     10     -10.1095      2.00000
     11     -10.0496      2.00000
     12     -10.0381      2.00000
     13     -10.0165      2.00000
     14      -9.9984      2.00000
     15      -9.9974      2.00000
     16      -9.9712      2.00000
     17      -9.9271      2.00000
     18      -9.9140      2.00000
     19      -9.8808      2.00000
     20      -9.8588      2.00000
     21      -3.1815      2.00000
     22      -2.2673      2.00000
     23      -0.5712      2.00000
     24      -0.0145      2.00000
     25       3.0320      2.00000
     26       3.4835      2.00000
     27       4.1174      2.00000
     28       4.1262      2.00000
     29      10.2240      0.00000
     30      11.2508      0.00000
     31      12.2384      0.00000
     32      12.5470      0.00000

 soft charge-density along one line, spin component           1
         0         1         2         3         4         5         6         7         8         9
 total charge-density along one line

------------------------ aborting loop because EDIFF is reached ----------------------------------------

[...]

  FORCE on cell =-STRESS in cart. coord.  units (eV):
  Direction    XX          YY          ZZ          XY          YZ          ZX
  Alpha Z   267.47872   267.47872   267.47872
  Ewald   -1563.01665 -1797.50492 -1618.38762    -0.00000    -0.00000     0.00000
  Hartree   853.68160   668.69509   811.99233     0.00000    -0.00000    -0.00000
  E(xc)    -313.41677  -313.34210  -313.41920     0.00000    -0.00000    -0.00000
  Local     -25.05884   389.67748    70.17341    -0.00000     0.00000    -0.00000
  n-local    37.16827    40.87410    38.74900     0.86265     0.30615    -0.04438
  augment   487.96377   488.09598   487.94648    -0.00000     0.00000     0.00000
  Kinetic   255.19109   256.02895   255.46687     3.34528     1.07442    -0.77125
  Fock        0.00000     0.00000     0.00000     0.00000     0.00000     0.00000
  Total      -0.00881     0.00331    -0.00001     0.00000     0.00000     0.00000
  in kB      -0.17466     0.06562    -0.00017     0.00000     0.00000     0.00000

 VOLUME and BASIS-vectors are now :
  energy-cutoff  :      400.00
  volume of cell :       80.78
      direct lattice vectors                 reciprocal lattice vectors
     2.306141888 -3.863293436 -0.000000000     0.216812332 -0.129423252 -0.000000000
     2.306141888  3.863293436  0.000000000     0.216812332  0.129423252  0.000000000
     0.000000000 -0.000000000  4.533268647     0.000000000 -0.000000000  0.220591383

  length of vectors
     4.499258448  4.499258448  4.533268647     0.252503397  0.252503397  0.220591383

 FORCES acting on ions
    electron-ion (+dipol)            ewald-force                    non-local-force                 convergence-correction
   -.206E-06 -.753E+02 -.497E+01   -.270E-15 0.792E+02 0.587E+01   0.271E-16 -.395E+01 -.900E+00   -.948E-13 0.808E-03 -.100E-03
   -.206E-06 0.753E+02 -.497E+01   0.188E-13 -.792E+02 0.587E+01   -.651E-16 0.395E+01 -.900E+00   0.142E-12 -.808E-03 -.100E-03
   0.206E-06 0.753E+02 0.497E+01   -.238E-13 -.792E+02 -.587E+01   -.341E-16 0.395E+01 0.900E+00   0.120E-12 -.808E-03 0.100E-03
   0.206E-06 -.753E+02 0.497E+01   -.252E-14 0.792E+02 -.587E+01   0.303E-17 -.395E+01 0.900E+00   -.124E-12 0.808E-03 0.100E-03
   0.436E-11 0.716E-11 0.131E-10   -.780E-14 0.000E+00 -.888E-15   -.691E-16 0.444E-15 0.000E+00   0.437E-13 0.557E-13 -.128E-12

 POSITION                                       TOTAL-FORCE (eV/Angst)
      2.30614     -1.20419      1.88641        -0.000000      0.003010      0.000847
      2.30614     -2.65910      4.15304        -0.000000     -0.003010      0.000847
      2.30614      1.20419      2.64686         0.000000     -0.003010     -0.000847
      2.30614      2.65910      0.38023         0.000000      0.003010     -0.000847
    total drift:                                0.000000      0.000000      0.000000

  FREE ENERGIE OF THE ION-ELECTRON SYSTEM (eV)
  free  energy   TOTEN  =       -11.61456299 eV

  energy  without entropy=      -11.61143910  energy(sigma->0) =      -11.61300105

 d Force = 0.7061614E-05[ 0.536E-05, 0.876E-05]  d Energy = 0.1620498E-04-0.914E-05
 d Force = 0.1371127E+00[ 0.137E+00, 0.137E+00]  d Ewald  = 0.3691394E+00-0.232E+00

 stress matrix after NEB project (eV)
     -0.00881      0.00000      0.00000
      0.00000      0.00331      0.00000
      0.00000      0.00000     -0.00001
  FORCES: max atom, RMS     0.003126    0.003126
  FORCE total and by dimension    0.006253    0.003010
  Stress total and by dimension    0.009407    0.008806
 Conjugate gradient step on ions:
 trial-energy change:   -0.000016  1 .order   -0.000016   -0.000022   -0.000009
  (g-gl).g = 0.726E-05      g.g   = 0.139E-04  gl.gl    = 0.157E-03
 g(Force)  = 0.495E-05   g(Stress)= 0.897E-05 ortho     = 0.744E-06
 gamma     =   0.04637
 trial     =   1.56849
 opt step  =   2.32375  (harmonic =   2.69133) maximal distance =0.00063456
 next E    =   -11.614565   (d E  =  -0.00002)

 reached required accuracy - stopping structural energy minimisation

 total charge

# of ion       s       p       d       tot
    1        0.962   0.684   9.953  11.598
    2        0.962   0.684   9.953  11.598
    3        0.962   0.684   9.953  11.598
    4        0.962   0.684   9.953  11.598
tot          3.847   2.735  39.812  46.394